! .MODEL  SMODEL ch_model S  TSTONEFILE=.\ch_model_fit.s2p  TYPE=SFMAX=         3e+11
! The above .MODEL line can be used for the S element in the netlist.
!
!
# Hz S RI R    50
         1e+09        0.0456307      -0.0245255        0.950068       -0.055474        0.950068       -0.055474       0.0464202      -0.0186843
       1.1e+09        0.0456268      -0.0272125         0.94977      -0.0611351         0.94977      -0.0611351       0.0460599      -0.0205064
       1.2e+09        0.0455777      -0.0299213         0.94942      -0.0668049         0.94942      -0.0668049       0.0456716      -0.0223216
       1.3e+09        0.0454831      -0.0326462        0.949019      -0.0724802        0.949019      -0.0724802       0.0452555      -0.0241302
       1.4e+09        0.0453434      -0.0353824        0.948566      -0.0781584        0.948566      -0.0781584       0.0448116      -0.0259327
       1.5e+09        0.0451593      -0.0381262        0.948061      -0.0838372        0.948061      -0.0838372       0.0443397      -0.0277291
       1.6e+09        0.0449319      -0.0408743        0.947506      -0.0895147        0.947506      -0.0895147       0.0438397      -0.0295196
       1.7e+09        0.0446622      -0.0436245        0.946901      -0.0951895        0.946901      -0.0951895       0.0433115      -0.0313041
       1.8e+09        0.0443513       -0.046375        0.946247        -0.10086        0.946247        -0.10086       0.0427549      -0.0330824
       1.9e+09        0.0439993      -0.0491254        0.945542       -0.106527        0.945542       -0.106527       0.0421695      -0.0348542
         2e+09        0.0436052      -0.0518775        0.944787       -0.112189        0.944787       -0.112189       0.0415546      -0.0366188
       2.1e+09        0.0431596      -0.0546453        0.943974       -0.117855        0.943974       -0.117855       0.0409073       -0.038373
       2.2e+09        0.0423519      -0.0576796        0.942892        -0.12363        0.942892        -0.12363       0.0401862      -0.0400377
       2.3e+09        0.0422932      -0.0599018        0.942316       -0.129027        0.942316       -0.129027       0.0395783      -0.0419022
       2.4e+09        0.0417313      -0.0626762        0.941355       -0.134681        0.941355       -0.134681         0.03884      -0.0436333
       2.5e+09        0.0411479       -0.065395        0.940363       -0.140299        0.940363       -0.140299       0.0380831      -0.0453626
       2.6e+09        0.0405277      -0.0680928        0.939324         -0.1459        0.939324         -0.1459       0.0373008       -0.047085
       2.7e+09        0.0398626      -0.0707733        0.938236       -0.151485        0.938236       -0.151485       0.0364926      -0.0487993
       2.8e+09        0.0391383      -0.0734337        0.937089       -0.157052        0.937089       -0.157052       0.0356603      -0.0505041
       2.9e+09        0.0383109      -0.0760568        0.935862       -0.162588        0.935862       -0.162588       0.0348103      -0.0521968
         3e+09        0.0371495      -0.0784145        0.934442       -0.167959        0.934442       -0.167959       0.0339909      -0.0538809
       3.1e+09        0.0377767      -0.0806418        0.933964        -0.17335        0.933964        -0.17335       0.0329471       -0.055744
       3.2e+09         0.036586      -0.0837144        0.932435       -0.179093        0.932435       -0.179093       0.0319964      -0.0573295
       3.3e+09        0.0355899      -0.0862524        0.931012       -0.184554        0.931012       -0.184554       0.0310409      -0.0589871
       3.4e+09        0.0346411      -0.0886229        0.929595       -0.189921        0.929595       -0.189921       0.0300615      -0.0606602
       3.5e+09        0.0338047      -0.0907701        0.928221       -0.195167        0.928221       -0.195167       0.0290537      -0.0623596
       3.6e+09        0.0334571      -0.0927777        0.927088       -0.200352        0.927088       -0.200352       0.0279661      -0.0641032
       3.7e+09        0.0335633      -0.0956321        0.926135       -0.206003        0.926135       -0.206003       0.0267282      -0.0657696
       3.8e+09        0.0326381       -0.099006        0.924582        -0.21188        0.924582        -0.21188       0.0255433      -0.0672853
       3.9e+09        0.0311827       -0.101685        0.922749       -0.217356        0.922749       -0.217356       0.0244438      -0.0688338
         4e+09        0.0299221       -0.103649        0.921025       -0.222452        0.921025       -0.222452       0.0233449      -0.0704743
       4.1e+09        0.0299183       -0.105501        0.919949       -0.227536        0.919949       -0.227536       0.0220674      -0.0722174
       4.2e+09         0.029293       -0.109235        0.918431       -0.233585        0.918431       -0.233585       0.0206855       -0.073664
       4.3e+09        0.0274172       -0.111547        0.916287       -0.238814        0.916287       -0.238814       0.0195442      -0.0751763
       4.4e+09        0.0268283       -0.113144        0.914833       -0.243714        0.914833       -0.243714       0.0182682      -0.0768735
       4.5e+09        0.0267481       -0.115904        0.913568       -0.249247        0.913568       -0.249247       0.0167986      -0.0784537
       4.6e+09        0.0258715       -0.119062        0.911835       -0.254944        0.911835       -0.254944       0.0153647      -0.0799031
       4.7e+09        0.0245687       -0.121936        0.909864       -0.260461        0.909864       -0.260461       0.0139782      -0.0813387
       4.8e+09        0.0231149       -0.124491        0.907802       -0.265792        0.907802       -0.265792       0.0126083      -0.0827883
       4.9e+09        0.0216511       -0.126603        0.905732       -0.270878        0.905732       -0.270878       0.0112492      -0.0842811
         5e+09        0.0209888       -0.128206        0.904085       -0.275728        0.904085       -0.275728      0.00980059      -0.0859008
       5.1e+09        0.0208805       -0.131257         0.90263        -0.28136         0.90263        -0.28136       0.0081139      -0.0873659
       5.2e+09         0.019506       -0.134397        0.900476       -0.286963        0.900476       -0.286963      0.00655609       -0.088687
       5.3e+09        0.0179415       -0.136995        0.898225        -0.29226        0.898225        -0.29226      0.00504408       -0.090047
       5.4e+09        0.0164089       -0.139274        0.895983        -0.29738        0.895983        -0.29738      0.00352894      -0.0914372
       5.5e+09         0.015078       -0.141098        0.893848       -0.302261        0.893848       -0.302261      0.00200317      -0.0928941
       5.6e+09        0.0152225       -0.143479        0.892429        -0.30751        0.892429        -0.30751     0.000188298      -0.0944133
       5.7e+09        0.0129465       -0.146666        0.889667        -0.31303        0.889667        -0.31303     -0.00141092       -0.095553
       5.8e+09        0.0123541       -0.147947        0.887878       -0.317637        0.887878       -0.317637     -0.00306558      -0.0971148
       5.9e+09        0.0113288        -0.15155        0.885696       -0.323431        0.885696       -0.323431     -0.00494277      -0.0983067
         6e+09       0.00925058       -0.153658        0.883008       -0.328373        0.883008       -0.328373     -0.00657559      -0.0995856
       6.1e+09       0.00837783       -0.156962        0.880909       -0.333949        0.880909       -0.333949      -0.0084375       -0.100719
       6.2e+09       0.00639815       -0.158587        0.878268       -0.338626        0.878268       -0.338626      -0.0100622       -0.102051
       6.3e+09       0.00649306       -0.161027        0.876632       -0.343829        0.876632       -0.343829       -0.012106       -0.103453
       6.4e+09       0.00401099       -0.163725        0.873625       -0.348993        0.873625       -0.348993      -0.0138144       -0.104513
       6.5e+09       0.00311329       -0.164852        0.871514       -0.353463        0.871514       -0.353463       -0.015611       -0.106025
       6.6e+09      0.000948702       -0.168456         0.86854       -0.359038         0.86854       -0.359038      -0.0175705       -0.106854
       6.7e+09      7.78497e-06       -0.170273        0.866367       -0.363845        0.866367       -0.363845      -0.0194006       -0.108235
       6.8e+09     -0.000569742       -0.172252        0.864251       -0.368674        0.864251       -0.368674      -0.0215041       -0.109488
       6.9e+09      -0.00305183       -0.175688        0.861072       -0.374151        0.861072       -0.374151      -0.0234435       -0.110336
         7e+09      -0.00417352       -0.176786        0.858746       -0.378531        0.858746       -0.378531      -0.0253087       -0.111741
       7.1e+09      -0.00639914        -0.17966        0.855655       -0.383649        0.855655       -0.383649      -0.0273364       -0.112562
       7.2e+09       -0.0069625       -0.181996          0.8535       -0.388697          0.8535       -0.388697      -0.0294653       -0.113839
       7.3e+09      -0.00829799        -0.18478        0.850865       -0.393798        0.850865       -0.393798      -0.0316064       -0.114735
       7.4e+09       -0.0109864       -0.186736        0.847524       -0.398449        0.847524       -0.398449      -0.0335396       -0.115724
       7.5e+09       -0.0116554       -0.189368         0.84522       -0.403536         0.84522       -0.403536      -0.0357774       -0.116767
       7.6e+09       -0.0140961        -0.19089        0.841992       -0.407938        0.841992       -0.407938      -0.0377456       -0.117787
       7.7e+09       -0.0148128       -0.193903        0.839583       -0.413186        0.839583       -0.413186      -0.0400885        -0.11872
       7.8e+09       -0.0173078       -0.195172        0.836301       -0.417431        0.836301       -0.417431       -0.042066       -0.119742
       7.9e+09       -0.0185447       -0.198664        0.833559       -0.422847        0.833559       -0.422847      -0.0444142        -0.12047
         8e+09       -0.0199113       -0.199117        0.830844       -0.426741        0.830844       -0.426741      -0.0465613        -0.12175
       8.1e+09       -0.0226678       -0.202776        0.827284       -0.432083        0.827284       -0.432083      -0.0487105       -0.122179
       8.2e+09       -0.0230529       -0.205631        0.824868       -0.437215        0.824868       -0.437215      -0.0513482       -0.123101
       8.3e+09       -0.0260051       -0.206426        0.821329       -0.441113        0.821329       -0.441113      -0.0532196       -0.124039
       8.4e+09       -0.0262043       -0.209011        0.818993       -0.446089        0.818993       -0.446089      -0.0558868       -0.124983
       8.5e+09       -0.0299343       -0.211652        0.814935       -0.450781        0.814935       -0.450781       -0.057819       -0.125368
       8.6e+09       -0.0316873       -0.214052          0.8118       -0.455495          0.8118       -0.455495       -0.060214       -0.126055
       8.7e+09       -0.0338941       -0.216117        0.808362       -0.460021        0.808362       -0.460021      -0.0626473       -0.126772
       8.8e+09       -0.0352398       -0.218652         0.80545       -0.464793         0.80545       -0.464793      -0.0650534       -0.127428
       8.9e+09       -0.0365649       -0.219439        0.802533       -0.468709        0.802533       -0.468709       -0.067475       -0.128441
         9e+09       -0.0386144       -0.223238        0.799082       -0.474038        0.799082       -0.474038       -0.070057       -0.128748
       9.1e+09       -0.0414683       -0.223731        0.795426       -0.477666        0.795426       -0.477666      -0.0721275       -0.129573
       9.2e+09       -0.0432548       -0.227459        0.792073       -0.482924        0.792073       -0.482924      -0.0747889       -0.129841
       9.3e+09       -0.0437292       -0.229271        0.789419       -0.487336        0.789419       -0.487336      -0.0775986       -0.130662
       9.4e+09       -0.0474348       -0.230154        0.785299       -0.491031        0.785299       -0.491031      -0.0795403       -0.131207
       9.5e+09       -0.0497014       -0.233893        0.781612       -0.496204        0.781612       -0.496204      -0.0822402       -0.131331
       9.6e+09        -0.052389       -0.234123        0.777986        -0.49963        0.777986        -0.49963      -0.0843646       -0.132109
       9.7e+09       -0.0543992       -0.238033        0.774362       -0.504856        0.774362       -0.504856      -0.0871979       -0.132156
       9.8e+09       -0.0576386       -0.238478        0.770428       -0.508301        0.770428       -0.508301      -0.0892533       -0.132751
       9.9e+09       -0.0594029       -0.241561        0.766923       -0.513112        0.766923       -0.513112      -0.0921101       -0.132956
         1e+10       -0.0621025       -0.242337        0.763185       -0.516719        0.763185       -0.516719      -0.0943666       -0.133499
