! .MODEL  SMODEL ch_model S  TSTONEFILE=.\ch_model_fit.s2p  TYPE=SFMAX=         3e+10
! The above .MODEL line can be used for the S element in the netlist.
!
!
# Hz S RI R    50
         5e+07       0.00155702       0.0109642        0.990678       -0.112166        0.990678       -0.112166      0.00155356       0.0109676
         1e+08       0.00249055       0.0204149         0.96642       -0.223924         0.96642       -0.223924        0.002478       0.0204128
       1.5e+08       0.00769785       0.0259861        0.935029       -0.333367        0.935029       -0.333367      0.00768326       0.0259912
         2e+08        0.0132652       0.0330588        0.889079       -0.437332        0.889079       -0.437332       0.0132449       0.0330618
       2.5e+08        0.0217373       0.0381881        0.832787         -0.5339        0.832787         -0.5339       0.0217027       0.0381967
         3e+08        0.0305039        0.040561        0.766841       -0.623761        0.766841       -0.623761       0.0304599       0.0405843
       3.5e+08        0.0389626       0.0413914        0.691113         -0.7059        0.691113         -0.7059        0.038917       0.0414292
         4e+08        0.0475435       0.0409009        0.606375       -0.778731        0.606375       -0.778731       0.0474995       0.0409486
       4.5e+08        0.0562133       0.0386419        0.514046       -0.841039        0.514046       -0.841039       0.0561699       0.0386959
         5e+08         0.064393       0.0343209        0.415685       -0.892133        0.415685       -0.892133       0.0643487       0.0343806
       5.5e+08        0.0713713       0.0280738        0.312729       -0.931662        0.312729       -0.931662       0.0713272       0.0281396
         6e+08        0.0766081       0.0203586        0.206456       -0.959427        0.206456       -0.959427       0.0765676       0.0204288
       6.5e+08        0.0798248       0.0117587       0.0980576       -0.975271       0.0980576       -0.975271       0.0797918       0.0118274
         7e+08        0.0809668       0.0028396      -0.0112863       -0.979059      -0.0112863       -0.979059       0.0809427      0.00289652
       7.5e+08        0.0801255     -0.00591649       -0.120346       -0.970705       -0.120346       -0.970705       0.0801067     -0.00588451
         8e+08        0.0774706      -0.0141198       -0.227824       -0.950221       -0.227824       -0.950221       0.0774473      -0.0141265
       8.5e+08        0.0732084      -0.0214561       -0.332374       -0.917768       -0.332374       -0.917768       0.0731646      -0.0215134
         9e+08        0.0675653      -0.0276646       -0.432626       -0.873683       -0.432626       -0.873683       0.0674794      -0.0277801
       9.5e+08         0.060787      -0.0325214       -0.527238       -0.818499       -0.527238       -0.818499       0.0606336      -0.0326972
         1e+09        0.0531457       -0.035834       -0.614941       -0.752938       -0.614941       -0.752938       0.0528974       -0.036066
      1.05e+09         0.044948      -0.0374448       -0.694574        -0.67789       -0.694574        -0.67789       0.0445769      -0.0377224
       1.1e+09        0.0365392      -0.0372429       -0.765121       -0.594387       -0.765121       -0.594387       0.0360179      -0.0375494
      1.15e+09        0.0283008      -0.0351795        -0.82572       -0.503567        -0.82572       -0.503567       0.0276033      -0.0354925
       1.2e+09        0.0206406      -0.0312857       -0.875676       -0.406635       -0.875676       -0.406635       0.0197427      -0.0315774
      1.25e+09        0.0139744      -0.0256874       -0.914447       -0.304834       -0.914447       -0.304834       0.0128542      -0.0259243
       1.3e+09       0.00870039      -0.0186163       -0.941629       -0.199424       -0.941629       -0.199424      0.00733864      -0.0187588
      1.35e+09       0.00516707      -0.0104111        -0.95694      -0.0916713        -0.95694      -0.0916713      0.00354828      -0.0104129
       1.4e+09       0.00363796     -0.00150892       -0.960201       0.0171503       -0.960201       0.0171503      0.00175212     -0.00131593
      1.45e+09       0.00425784      0.00757855       -0.951328        0.125743       -0.951328        0.125743      0.00210298       0.0080282
       1.5e+09       0.00702605       0.0163015       -0.930346        0.232771       -0.930346        0.232771      0.00461138       0.0170769
      1.55e+09        0.0117834       0.0241204       -0.897407        0.336843       -0.897407        0.336843      0.00913273       0.0252956
       1.6e+09        0.0182181       0.0305592       -0.852839        0.436522       -0.852839        0.436522       0.0153727       0.0322098
      1.65e+09        0.0258925       0.0352551       -0.797184        0.530348       -0.797184        0.530348        0.022913       0.0374533
       1.7e+09         0.034289       0.0379953       -0.731239        0.616887       -0.731239        0.616887       0.0312549       0.0408043
      1.75e+09         0.042866       0.0387334       -0.656069        0.694812       -0.656069        0.694812       0.0398741       0.0422013
       1.8e+09        0.0511161       0.0375819       -0.572995        0.762974       -0.572995        0.762974        0.048276        0.041737
      1.85e+09        0.0586142       0.0347838       -0.483541         0.82048       -0.483541         0.82048       0.0560426       0.0396315
       1.9e+09        0.0650482       0.0306702       -0.389369        0.866747       -0.389369        0.866747       0.0628625       0.0361918
      1.95e+09        0.0702304       0.0256142       -0.292183        0.901519       -0.292183        0.901519        0.068543       0.0317676
         2e+09        0.0740917       0.0199877       -0.193654        0.924861       -0.193654        0.924861       0.0730041       0.0267104
