!Generated from: C:\Users\peter4656563\Desktop\__Study\Test\43micro_FIT.BNP
! Port1::DQ
! Port2::DQ
!
!BroadbandSPICE Version: 24.1.0.10141.541387   000
!Computer Host Name: RD78ECE-EMCLAB
!
!TouchstoneFormatFlag = 1
! GNDNET GND
! NETSLIST
!
#	Hz	S	RI	R	50
50000000	0.000960738730457988	0.00990888197969636	0.991225833810814	-0.113528870930848	0.991225833810814	-0.113528870930848	0.000958858798316808	0.00990902034565611
100000000	0.00415567929100025	0.0177330273578777	0.969327021855716	-0.224835803842042	0.969327021855716	-0.224835803842042	0.00414858796009621	0.0177328135066604
150000000	0.00908061849626718	0.0262459506547661	0.936734685521292	-0.333438623170963	0.936734685521292	-0.333438623170963	0.00906776725340552	0.0262486184619937
200000000	0.0157344137834977	0.0324307413923206	0.891364542774502	-0.436544066414215	0.891364542774502	-0.436544066414215	0.015713503426885	0.0324367296491794
250000000	0.0229717863238361	0.0373538756056842	0.835328006414545	-0.533373307341794	0.835328006414545	-0.533373307341794	0.0229411126632765	0.0373670598418924
300000000	0.0313454775824911	0.0408820759079097	0.768884409662874	-0.623333441236277	0.768884409662874	-0.623333441236277	0.0313067952834128	0.0409058801834348
350000000	0.0404651271914105	0.0423111617817931	0.692646982826885	-0.705020467783888	0.692646982826885	-0.705020467783888	0.0404211050669384	0.0423465931705801
400000000	0.0495473638345738	0.0415158385675646	0.607807297302596	-0.777234887882481	0.607807297302596	-0.777234887882481	0.0495000395750265	0.0415626470265291
450000000	0.0580331368228481	0.038746919654269	0.515675979147802	-0.839171224092416	0.515675979147802	-0.839171224092416	0.0579843903920311	0.03880460527411
500000000	0.0655995058641992	0.0342870593342147	0.417500046646696	-0.890244946066774	0.417500046646696	-0.890244946066774	0.0655519025009806	0.0343545078028436
550000000	0.0719981170434294	0.0283627766644932	0.314489164985483	-0.929966238151123	0.314489164985483	-0.929966238151123	0.071954886017053	0.0284371272703023
600000000	0.0769719221626144	0.0212021276970386	0.207879129330225	-0.957916824688253	0.207879129330225	-0.957916824688253	0.0769359302343422	0.0212778695412495
650000000	0.0802670920818556	0.0130989775809675	0.0989629814820877	-0.973778340092682	0.0989629814820877	-0.973778340092682	0.0802393324556603	0.0131678542032157
700000000	0.0816837139224337	0.00443131849717315	-0.0109140071648441	-0.977367253561757	-0.0109140071648441	-0.977367253561757	0.0816619332092834	0.00448307317400374
750000000	0.0811201245564789	-0.0043611502166093	-0.12037944108053	-0.968656688562248	-0.12037944108053	-0.968656688562248	0.0810979829358364	-0.00433750230985719
800000000	0.0785934799197249	-0.0128177515679258	-0.228063994888361	-0.947782329541295	-0.228063994888361	-0.947782329541295	0.0785603343869287	-0.0128325234613335
850000000	0.0742378993956468	-0.0204974004012956	-0.332627961578042	-0.915036758737292	-0.332627961578042	-0.915036758737292	0.0741790719085356	-0.0205590058911756
900000000	0.0682886222466239	-0.0270099112589121	-0.43278095215523	-0.870857987696873	-0.43278095215523	-0.870857987696873	0.0681859182246297	-0.0271239354751827
950000000	0.0610604159251953	-0.0320364085344969	-0.527295035901882	-0.815816873113019	-0.527295035901882	-0.815816873113019	0.0608926809327218	-0.0322049395131708
1000000000	0.0529254445161775	-0.0353410130939694	-0.615013331426628	-0.750606313376381	-0.615013331426628	-0.750606313376381	0.0526690434121062	-0.0355620971203734
1050000000	0.0442926888821393	-0.0367768425275351	-0.694856580909165	-0.676033399934407	-0.694856580909165	-0.676033399934407	0.043921911798551	-0.0370439033136848
1100000000	0.0355889673501379	-0.0362886026547371	-0.76583003865661	-0.593014323903476	-0.76583003865661	-0.593014323903476	0.0350764690313811	-0.0365897094423365
1150000000	0.02724079523456	-0.0339127936506635	-0.827032397551484	-0.50257087306806	-0.827032397551484	-0.50257087306806	0.0265582319448744	-0.0342297522066556
1200000000	0.0196564265824698	-0.029775505078286	-0.87766766084807	-0.405826784931514	-0.87766766084807	-0.405826784931514	0.018775457106286	-0.0300828493607258
1250000000	0.0132079939393761	-0.0240872317742313	-0.917059971938589	-0.304002022331879	-0.917059971938589	-0.304002022331879	0.0121017609397219	-0.0243512853910057
1300000000	0.00821430512215282	-0.0171341244151684	-0.944670542822209	-0.19840318526865	-0.944670542822209	-0.19840318526865	0.00685942346472534	-0.0173123582882187
1350000000	0.00492530255002122	-0.00926544777413859	-0.960115069197314	-0.0904087372839974	-0.960115069197314	-0.0904087372839974	0.00330427200415107	-0.00930637045176545
1400000000	0.00350931847703118	-0.000877542914752831	-0.963179483951057	0.0185515399949623	-0.963179483951057	0.0185515399949623	0.00161317220597945	-0.000721319126876943
1450000000	0.00404407523882755	0.00760493057063613	-0.953831674367287	0.12702252294009	-0.953831674367287	0.12702252294009	0.00187499454758966	0.00802502325666198
1500000000	0.00651198582536006	0.0157494122146525	-0.932226944595449	0.233553807600758	-0.932226944595449	0.233553807600758	0.00408557321053016	0.0165046949693084
1550000000	0.0107998627182436	0.0231364385323529	-0.898705576534115	0.336731582611153	-0.898705576534115	0.336731582611153	0.00814677948219011	0.0242998434498079
1600000000	0.0167028051511116	0.0293803600346361	-0.853781802549528	0.435209354492098	-0.853781802549528	0.435209354492098	0.013869547479911	0.0310229877737173
1650000000	0.0239319311604131	0.0341492611404771	-0.798124753952826	0.527734291833888	-0.798124753952826	0.527734291833888	0.0209806304068557	0.0363368054058477
1700000000	0.0321257970101255	0.0371838667987143	-0.732533319164396	0.613166217953321	-0.732533319164396	0.613166217953321	0.0291330677099872	0.0399732504978899
1750000000	0.0408657443202455	0.0383152897295438	-0.657908105182186	0.690487141275042	-0.657908105182186	0.690487141275042	0.0379207424381893	0.0417518195457768
1800000000	0.0496958666264875	0.0374811695511845	-0.575224583374618	0.758800630728849	-0.575224583374618	0.758800630728849	0.0468978332932578	0.0415964187107782
1850000000	0.0581485384688378	0.0347390402871174	-0.485511760843007	0.817322166201251	-0.485511760843007	0.817322166201251	0.0556041657992626	0.0395495281146532
1900000000	0.0657762192041198	0.0302747514487519	-0.389840154065901	0.865363547290544	-0.389840154065901	0.865363547290544	0.063597166712741	0.0357813284310888
1950000000	0.072189310169905	0.0244027536139545	-0.289321371567095	0.902316147799854	-0.289321371567095	0.902316147799854	0.0704901169540828	0.0305904553566279
2000000000	0.0770981603393285	0.0175544843355599	-0.185119335730273	0.927638820265211	-0.185119335730273	0.927638820265211	0.0759946494765358	0.024392522419319
