! .MODEL  SMODEL ch_model S  TSTONEFILE=.\ch_model_fit.s4p  TYPE=SFMAX=         3e+11
! The above .MODEL line can be used for the S element in the netlist.
!
!
# Hz S RI R    50
         4e+07         0.798037       -0.546453    -0.000822896      0.00498098    -1.20076e-05     3.27109e-06    -8.71109e-06     3.86564e-06
                   -0.000810736      0.00494165        0.780152        0.582896     -8.4748e-08     6.21865e-07     1.02408e-06     1.49494e-07
                   -1.09343e-05     3.20909e-06     1.56103e-06    -1.06775e-07       -0.741479       -0.475431    -1.86454e-06     7.82601e-07
                    -8.0258e-06     2.56837e-06     2.76928e-07     1.20406e-06    -3.46708e-07    -6.67069e-07       -0.741209       -0.473459
     4.002e+07         0.795868       -0.551451    -0.000786742      0.00499952     -1.1986e-05     3.22612e-06    -8.71072e-06     3.79373e-06
                   -0.000774477      0.00495957        0.785401        0.576114    -8.69427e-08     6.21724e-07     1.01271e-06     1.47212e-07
                    -1.0969e-05     3.14256e-06     1.55119e-06    -9.91512e-08       -0.742977       -0.471111    -1.80371e-06     7.70791e-07
                   -8.05404e-06     2.50908e-06     2.82951e-07     1.18062e-06    -3.26654e-07    -6.65441e-07       -0.742705       -0.469135
     4.004e+07         0.793635       -0.556438    -0.000750491      0.00501766     -1.1967e-05     3.18338e-06    -8.71237e-06     3.72441e-06
                   -0.000738143      0.00497709        0.790557        0.569328    -8.89031e-08     6.21775e-07     1.00164e-06     1.44929e-07
                   -1.10054e-05     3.07933e-06     1.54146e-06    -9.15945e-08       -0.744464       -0.466808    -1.74417e-06     7.58589e-07
                   -8.08364e-06      2.4525e-06     2.88606e-07      1.1575e-06    -3.07273e-07    -6.63962e-07       -0.744191       -0.464828
     4.006e+07         0.791339       -0.561414    -0.000714147      0.00503539    -1.19507e-05     3.14287e-06    -8.71597e-06     3.65765e-06
                   -0.000701735      0.00499422         0.79562        0.562539    -9.06298e-08     6.22011e-07      9.9086e-07     1.42641e-07
                   -1.10437e-05     3.01938e-06     1.53184e-06    -8.41035e-08       -0.745942       -0.462521    -1.68591e-06     7.46015e-07
                   -8.11454e-06     2.39859e-06     2.93904e-07     1.13472e-06    -2.88554e-07     -6.6262e-07       -0.745666       -0.460536
     4.008e+07         0.788982       -0.566378    -0.000677714      0.00505273    -1.19369e-05     3.10459e-06    -8.72146e-06     3.59344e-06
                   -0.000665258      0.00501096        0.800592        0.555746    -9.21235e-08     6.22424e-07     9.80367e-07     1.40346e-07
                   -1.10836e-05     2.96268e-06     1.52233e-06    -7.66767e-08        -0.74741        -0.45825     -1.6289e-06     7.33087e-07
                   -8.14667e-06     2.34734e-06     2.98854e-07     1.11225e-06    -2.70482e-07    -6.61403e-07       -0.747132       -0.456261
      4.01e+07         0.786564        -0.57133    -0.000641194      0.00506968    -1.19255e-05     3.06855e-06    -8.72875e-06     3.53176e-06
                   -0.000628712      0.00502732        0.805473        0.548951    -9.33849e-08     6.23008e-07     9.70152e-07      1.3804e-07
                   -1.11251e-05     2.90921e-06     1.51293e-06    -6.93125e-08       -0.748869       -0.453993    -1.57313e-06     7.19824e-07
                   -8.17998e-06     2.29873e-06     3.03463e-07     1.09012e-06    -2.53045e-07      -6.603e-07       -0.748588          -0.452
     4.012e+07         0.784085       -0.576268     -0.00060459      0.00508624    -1.19166e-05     3.03475e-06     -8.7378e-06      3.4726e-06
                   -0.000592101      0.00504329        0.810266        0.542154    -9.44147e-08     6.23755e-07     9.60208e-07      1.3572e-07
                   -1.11682e-05     2.85894e-06     1.50363e-06    -6.20095e-08       -0.750317       -0.449752    -1.51858e-06     7.06244e-07
                   -8.21442e-06     2.25272e-06     3.07743e-07     1.06831e-06     -2.3623e-07      -6.593e-07       -0.750033       -0.447754
     4.014e+07         0.781545       -0.581193    -0.000567904      0.00510242    -1.19099e-05     3.00318e-06    -8.74852e-06     3.41595e-06
                   -0.000555426       0.0050589        0.814971        0.535356    -9.52138e-08     6.24659e-07     9.50527e-07     1.33383e-07
                   -1.12128e-05     2.81184e-06     1.49445e-06    -5.47664e-08       -0.751756       -0.445524    -1.46523e-06     6.92365e-07
                   -8.24992e-06     2.20931e-06       3.117e-07     1.04682e-06    -2.20024e-07    -6.58394e-07       -0.751469       -0.443522
     4.016e+07         0.778947       -0.586104    -0.000531141      0.00511821    -1.19055e-05     2.97385e-06    -8.76087e-06     3.36178e-06
                    -0.00051869      0.00507413        0.819589        0.528556    -9.57829e-08     6.25712e-07     9.41103e-07     1.31025e-07
                   -1.12588e-05     2.76791e-06     1.48537e-06    -4.75819e-08       -0.753185       -0.441311    -1.41306e-06     6.78205e-07
                   -8.28644e-06     2.16845e-06     3.15344e-07     1.02565e-06    -2.04414e-07     -6.5757e-07       -0.752894       -0.439304
     4.018e+07          0.77629          -0.591    -0.000494301      0.00513362    -1.19033e-05     2.94675e-06    -8.77478e-06     3.31009e-06
                   -0.000481896      0.00508899        0.824122        0.521755     -9.6123e-08      6.2691e-07     9.31928e-07     1.28645e-07
                   -1.13061e-05      2.7271e-06     1.47639e-06    -4.04547e-08       -0.754605       -0.437111    -1.36206e-06     6.63778e-07
                   -8.32393e-06     2.13014e-06     3.18684e-07      1.0048e-06    -1.89389e-07    -6.56819e-07        -0.75431         -0.4351
      4.02e+07         0.773574        -0.59588    -0.000457388      0.00514865    -1.19031e-05     2.92189e-06    -8.79019e-06     3.26085e-06
                   -0.000445045      0.00510348         0.82857        0.514955     -9.6235e-08     6.28244e-07     9.22997e-07     1.26239e-07
                   -1.13547e-05     2.68939e-06     1.46753e-06    -3.33838e-08       -0.756015       -0.432924     -1.3122e-06     6.49103e-07
                   -8.36233e-06     2.09433e-06     3.21726e-07     9.84269e-07    -1.74936e-07    -6.56132e-07       -0.755715       -0.430908
     4.022e+07         0.770802       -0.600744    -0.000420404      0.00516332     -1.1905e-05     2.89925e-06    -8.80703e-06     3.21404e-06
                   -0.000408139      0.00511762        0.832935        0.508154      -9.612e-08     6.29708e-07     9.14302e-07     1.23806e-07
                   -1.14046e-05     2.65476e-06     1.45877e-06     -2.6368e-08       -0.757414       -0.428749    -1.26347e-06     6.34194e-07
                   -8.40159e-06     2.06103e-06     3.24481e-07     9.64054e-07    -1.61042e-07      -6.555e-07       -0.757111       -0.426729
     4.024e+07         0.767972       -0.605591    -0.000383352      0.00517761    -1.19088e-05     2.87884e-06    -8.82526e-06     3.16966e-06
                   -0.000371181      0.00513139        0.837218        0.501354     -9.5779e-08     6.31297e-07     9.05837e-07     1.21342e-07
                   -1.14556e-05     2.62318e-06     1.45012e-06    -1.94063e-08       -0.758805       -0.424587    -1.21585e-06     6.19067e-07
                   -8.44167e-06     2.03018e-06     3.26955e-07     9.44153e-07    -1.47696e-07    -6.54913e-07       -0.758496       -0.422563
     4.026e+07         0.765086       -0.610421    -0.000346234      0.00519154    -1.19145e-05     2.86065e-06    -8.84481e-06     3.12769e-06
                   -0.000334172      0.00514481        0.841418        0.494554    -9.52131e-08     6.33004e-07     8.97596e-07     1.18846e-07
                   -1.15076e-05     2.59463e-06     1.44157e-06    -1.24978e-08       -0.760185       -0.420437    -1.16932e-06     6.03737e-07
                   -8.48251e-06     2.00178e-06     3.29156e-07     9.24566e-07    -1.34886e-07    -6.54364e-07       -0.759872       -0.418408
     4.028e+07         0.762144       -0.615233    -0.000309053      0.00520511     -1.1922e-05     2.84468e-06    -8.86563e-06      3.0881e-06
                   -0.000297114      0.00515788        0.845539        0.487756    -9.44234e-08     6.34824e-07     8.89572e-07     1.16315e-07
                   -1.15607e-05     2.56908e-06     1.43313e-06    -5.64152e-09       -0.761556       -0.416298    -1.12388e-06     5.88219e-07
                   -8.52407e-06      1.9758e-06     3.31092e-07      9.0529e-07      -1.226e-07    -6.53844e-07       -0.761237       -0.414265
      4.03e+07         0.759147       -0.620027    -0.000271809      0.00521832    -1.19313e-05     2.83093e-06    -8.88767e-06     3.05088e-06
                   -0.000260009      0.00517059         0.84958        0.480959    -9.34111e-08     6.36749e-07     8.81759e-07     1.13749e-07
                   -1.16148e-05     2.54651e-06      1.4248e-06     1.16325e-09       -0.762916       -0.412171     -1.0795e-06     5.72526e-07
                    -8.5663e-06     1.95222e-06     3.32771e-07     8.86324e-07    -1.10827e-07    -6.53345e-07       -0.762592       -0.410133
     4.032e+07         0.756096       -0.624803    -0.000234507      0.00523117    -1.19423e-05     2.81938e-06    -8.91086e-06     3.01601e-06
                   -0.000222859      0.00518296        0.853543        0.474164    -9.21775e-08     6.38775e-07     8.74151e-07     1.11143e-07
                   -1.16698e-05     2.52688e-06     1.41658e-06     7.91735e-09       -0.764267       -0.408054    -1.03616e-06     5.56672e-07
                   -8.60917e-06       1.931e-06       3.342e-07     8.67665e-07    -9.95551e-08    -6.52859e-07       -0.763937       -0.406011
     4.034e+07         0.752991       -0.629558    -0.000197148      0.00524366     -1.1955e-05     2.81003e-06    -8.93516e-06     2.98347e-06
                   -0.000185666      0.00519499        0.857428        0.467372    -9.07237e-08     6.40896e-07     8.66742e-07     1.08498e-07
                   -1.17257e-05     2.51018e-06     1.40846e-06     1.46215e-08       -0.765608       -0.403948    -9.93849e-07     5.40671e-07
                   -8.65262e-06     1.91214e-06     3.35386e-07     8.49312e-07    -8.87728e-08     -6.5238e-07       -0.765272       -0.401901
     4.036e+07         0.749832       -0.634294    -0.000159734      0.00525581    -1.19692e-05     2.80288e-06    -8.96052e-06     2.95324e-06
                   -0.000148431      0.00520668        0.861237        0.460582    -8.90511e-08     6.43105e-07     8.59526e-07     1.05812e-07
                   -1.17823e-05     2.49637e-06     1.40044e-06     2.12763e-08       -0.766939       -0.399852    -9.52554e-07     5.24536e-07
                   -8.69661e-06     1.89559e-06     3.36337e-07     8.31264e-07    -7.84692e-08      -6.519e-07       -0.766597         -0.3978
     4.038e+07          0.74662        -0.63901    -0.000122266      0.00526761    -1.19849e-05     2.79791e-06    -8.98689e-06     2.92532e-06
                   -0.000111156      0.00521803         0.86497        0.453795    -8.71611e-08     6.45398e-07     8.52497e-07     1.03082e-07
                   -1.18397e-05     2.48543e-06     1.39254e-06     2.78824e-08        -0.76826       -0.395766    -9.12256e-07     5.08279e-07
                    -8.7411e-06     1.88135e-06      3.3706e-07     8.13518e-07    -6.86333e-08    -6.51412e-07       -0.767912        -0.39371
      4.04e+07         0.743357       -0.643705    -8.47482e-05      0.00527906    -1.20021e-05     2.79513e-06    -9.01421e-06     2.89967e-06
                   -7.38423e-05      0.00522904        0.868628         0.44701    -8.50549e-08     6.47769e-07      8.4565e-07     1.00307e-07
                   -1.18978e-05     2.47734e-06     1.38474e-06     3.44403e-08       -0.769571       -0.391689    -8.72939e-07     4.91912e-07
                   -8.78605e-06     1.86937e-06      3.3756e-07     7.96072e-07     -5.9254e-08     -6.5091e-07       -0.769216       -0.389629
     4.042e+07         0.740041       -0.648379    -4.71809e-05      0.00529017    -1.20207e-05     2.79452e-06    -9.04244e-06     2.87628e-06
                   -3.64919e-05      0.00523972        0.872212         0.44023    -8.27341e-08     6.50213e-07     8.38979e-07     9.74868e-08
                   -1.19566e-05     2.47207e-06     1.37704e-06     4.09505e-08       -0.770872       -0.387622    -8.34589e-07     4.75448e-07
                   -8.83142e-06     1.85965e-06     3.37846e-07     7.78926e-07    -5.03207e-08    -6.50387e-07        -0.77051       -0.385557
     4.044e+07         0.736675       -0.653031    -9.56647e-06      0.00530094    -1.20406e-05     2.79607e-06    -9.07153e-06     2.85513e-06
                    8.94024e-07      0.00525008        0.875724        0.433453       -8.02e-08     6.52724e-07     8.32478e-07     9.46194e-08
                   -1.20159e-05     2.46958e-06     1.36946e-06     4.74136e-08       -0.772163       -0.383564     -7.9719e-07     4.58899e-07
                   -8.87716e-06     1.85216e-06     3.37924e-07     7.62076e-07    -4.18227e-08    -6.49838e-07       -0.771794       -0.381495
     4.046e+07         0.733258       -0.657661     2.80934e-05      0.00531138    -1.20618e-05     2.79979e-06    -9.10143e-06      2.8362e-06
                    3.83139e-05      0.00526011        0.879163         0.42668    -7.74542e-08     6.55298e-07     8.26142e-07     9.17037e-08
                   -1.20758e-05     2.46986e-06     1.36198e-06     5.38297e-08       -0.773444       -0.379514    -7.60727e-07     4.42275e-07
                   -8.92325e-06     1.84686e-06     3.37801e-07      7.4552e-07    -3.37495e-08    -6.49257e-07       -0.773068       -0.377441
     4.048e+07         0.729791       -0.662268     6.57968e-05      0.00532148    -1.20842e-05     2.80565e-06    -9.13211e-06     2.81947e-06
                    7.57663e-05      0.00526981        0.882531        0.419911    -7.44982e-08     6.57928e-07     8.19966e-07     8.87387e-08
                   -1.21362e-05     2.47288e-06      1.3546e-06     6.01994e-08       -0.774715       -0.375473    -7.25185e-07     4.25587e-07
                   -8.96964e-06     1.84375e-06     3.37482e-07     7.29258e-07    -2.60906e-08    -6.48638e-07       -0.774331       -0.373396
      4.05e+07         0.726274       -0.666853     0.000103542      0.00533125    -1.21078e-05     2.81364e-06     -9.1635e-06     2.80492e-06
                     0.00011325       0.0052792        0.885828        0.413147    -7.13335e-08     6.60611e-07     8.13944e-07     8.57235e-08
                    -1.2197e-05     2.47861e-06     1.34734e-06     6.65229e-08       -0.775976        -0.37144     -6.9055e-07     4.08847e-07
                    -9.0163e-06     1.84279e-06     3.36974e-07     7.13286e-07     -1.8836e-08    -6.47975e-07       -0.775584       -0.369359
     4.052e+07         0.722709       -0.671414     0.000141328      0.00534069    -1.21326e-05     2.82377e-06    -9.19557e-06     2.79254e-06
                    0.000150763      0.00528826        0.889056        0.406387    -6.79616e-08      6.6334e-07     8.08071e-07     8.26572e-08
                   -1.22582e-05     2.48703e-06     1.34017e-06     7.28005e-08       -0.777226       -0.367415    -6.56806e-07     3.92064e-07
                   -9.06318e-06     1.84396e-06     3.36284e-07     6.97604e-07    -1.19753e-08    -6.47264e-07       -0.776827        -0.36533
     4.054e+07         0.719095       -0.675951     0.000179152       0.0053498    -1.21584e-05     2.83602e-06    -9.22828e-06      2.7823e-06
                    0.000188306      0.00529701        0.892215        0.399633    -6.43843e-08     6.66112e-07     8.02342e-07     7.95391e-08
                   -1.23197e-05      2.4981e-06     1.33312e-06     7.90323e-08       -0.778467       -0.363398     -6.2394e-07     3.75249e-07
                   -9.11026e-06     1.84724e-06     3.35417e-07     6.82208e-07    -5.49863e-09    -6.46499e-07       -0.778059       -0.361308
     4.056e+07         0.715433       -0.680465     0.000217013      0.00535859    -1.21852e-05     2.85037e-06    -9.26159e-06     2.77418e-06
                    0.000225875      0.00530545        0.895305        0.392883    -6.06032e-08     6.68922e-07     7.96753e-07     7.63684e-08
                   -1.23816e-05     2.51181e-06     1.32617e-06     8.52185e-08       -0.779697       -0.359388    -5.91937e-07     3.58412e-07
                    -9.1575e-06     1.85259e-06      3.3438e-07     6.67097e-07     6.03915e-10    -6.45677e-07        -0.77928       -0.357294
     4.058e+07         0.711724       -0.684953      0.00025491      0.00536706     -1.2213e-05     2.86682e-06    -9.29545e-06     2.76817e-06
                    0.000263471      0.00531358        0.898328        0.386139    -5.66198e-08     6.71764e-07     7.91297e-07     7.31446e-08
                   -1.24437e-05     2.52812e-06     1.31933e-06     9.13593e-08       -0.780916       -0.355385    -5.60783e-07     3.41561e-07
                   -9.20486e-06     1.86001e-06     3.33178e-07     6.52269e-07      6.3421e-09    -6.44791e-07       -0.780491       -0.353288
      4.06e+07         0.707968       -0.689417      0.00029284      0.00537521    -1.22418e-05     2.88535e-06    -9.32981e-06     2.76425e-06
                    0.000301091      0.00532139        0.901285        0.379401     -5.2436e-08     6.74634e-07     7.85971e-07     6.98671e-08
                   -1.25061e-05     2.54701e-06     1.31259e-06     9.74547e-08       -0.782125        -0.35139    -5.30464e-07     3.24707e-07
                   -9.25232e-06     1.86946e-06     3.31818e-07     6.37722e-07     1.17256e-08    -6.43839e-07       -0.781691       -0.349288
     4.062e+07         0.704165       -0.693855     0.000330804      0.00538304    -1.22714e-05     2.90596e-06    -9.36466e-06     2.76238e-06
                    0.000338736      0.00532891        0.904176        0.372669    -4.80535e-08     6.77528e-07      7.8077e-07     6.65355e-08
                   -1.25686e-05     2.56845e-06     1.30596e-06     1.03505e-07       -0.783324       -0.347401    -5.00966e-07     3.07858e-07
                   -9.29984e-06     1.88092e-06     3.30304e-07     6.23453e-07     1.67638e-08    -6.42816e-07       -0.782881       -0.345296
     4.064e+07         0.700317       -0.698268     0.000368798      0.00539056    -1.23018e-05     2.92864e-06    -9.39993e-06     2.76256e-06
                    0.000376403      0.00533611        0.907001        0.365942    -4.34739e-08     6.80441e-07     7.75689e-07     6.31494e-08
                   -1.26312e-05     2.59241e-06     1.29944e-06     1.09509e-07       -0.784512       -0.343418    -4.72276e-07     2.91024e-07
                   -9.34738e-06     1.89437e-06     3.28643e-07     6.09461e-07     2.14663e-08    -6.41717e-07        -0.78406       -0.341309
     4.066e+07         0.696423       -0.702655     0.000406822      0.00539777     -1.2333e-05     2.95336e-06     -9.4356e-06     2.76477e-06
                    0.000414092      0.00534302        0.909762        0.359222    -3.86992e-08     6.83369e-07     7.70722e-07     5.97084e-08
                    -1.2694e-05     2.61887e-06     1.29302e-06     1.15469e-07        -0.78569       -0.339442    -4.44381e-07     2.74211e-07
                   -9.39493e-06     1.90978e-06      3.2684e-07     5.95743e-07     2.58422e-08     -6.4054e-07       -0.785229        -0.33733
     4.068e+07         0.692485       -0.707016     0.000444875      0.00540467     -1.2365e-05     2.98013e-06    -9.47163e-06     2.76897e-06
                    0.000451801      0.00534963         0.91246        0.352508    -3.37311e-08     6.86308e-07     7.65867e-07     5.62124e-08
                   -1.27568e-05      2.6478e-06     1.28671e-06     1.21383e-07       -0.786857       -0.335472    -4.17266e-07      2.5743e-07
                   -9.44244e-06     1.92713e-06     3.24901e-07     5.82297e-07     2.99007e-08    -6.39281e-07       -0.786386       -0.333356
      4.07e+07         0.688502       -0.711349     0.000482955      0.00541126    -1.23976e-05     3.00892e-06    -9.50798e-06     2.77517e-06
                     0.00048953      0.00535594        0.915094        0.345801    -2.85714e-08     6.89252e-07     7.61118e-07     5.26612e-08
                   -1.28196e-05     2.67918e-06      1.2805e-06     1.27251e-07       -0.788014       -0.331508     -3.9092e-07     2.40687e-07
                   -9.48988e-06     1.94639e-06      3.2283e-07     5.69121e-07     3.36509e-08    -6.37936e-07       -0.787533       -0.329389
     4.072e+07         0.684475       -0.715656      0.00052106      0.00541754    -1.24309e-05     3.03972e-06    -9.54461e-06     2.78332e-06
                    0.000527278      0.00536196        0.917666          0.3391     -2.3222e-08     6.92199e-07     7.56471e-07     4.90547e-08
                   -1.28824e-05     2.71297e-06      1.2744e-06     1.33074e-07        -0.78916        -0.32755    -3.65328e-07      2.2399e-07
                   -9.53724e-06     1.96755e-06     3.20633e-07     5.56214e-07     3.71017e-08    -6.36502e-07       -0.788669       -0.325427
     4.074e+07         0.680405       -0.719936     0.000559191      0.00542352    -1.24648e-05     3.07252e-06     -9.5815e-06     2.79342e-06
                    0.000565044      0.00536768        0.920176        0.332407    -1.76849e-08     6.95144e-07     7.51922e-07     4.53928e-08
                   -1.29451e-05     2.74915e-06     1.26841e-06      1.3885e-07       -0.790295       -0.323598    -3.40478e-07     2.07348e-07
                   -9.58447e-06     1.99057e-06     3.18316e-07     5.43572e-07     4.02619e-08    -6.34976e-07       -0.789794       -0.321471
     4.076e+07         0.676292       -0.724188     0.000597345      0.00542921    -1.24993e-05     3.10731e-06     -9.6186e-06     2.80544e-06
                    0.000602827      0.00537311        0.922625         0.32572    -1.19618e-08     6.98082e-07     7.47467e-07     4.16756e-08
                   -1.30077e-05      2.7877e-06     1.26252e-06     1.44581e-07       -0.791419        -0.31965    -3.16357e-07     1.90766e-07
                   -9.63156e-06     2.01544e-06     3.15882e-07     5.31193e-07     4.31401e-08    -6.33356e-07       -0.790908        -0.31752
     4.078e+07         0.672136       -0.728412     0.000635521      0.00543459    -1.25342e-05     3.14407e-06    -9.65588e-06     2.81936e-06
                    0.000640626      0.00537826        0.925013        0.319041    -6.05482e-09     7.01011e-07       7.431e-07     3.79031e-08
                   -1.30702e-05     2.82858e-06     1.25674e-06     1.50265e-07       -0.792533       -0.315708    -2.92953e-07     1.74253e-07
                   -9.67847e-06     2.04213e-06     3.13338e-07     5.19076e-07      4.5745e-08    -6.31638e-07       -0.792011       -0.313575
      4.08e+07         0.667939       -0.732608     0.000673719      0.00543967    -1.25697e-05      3.1828e-06    -9.69332e-06     2.83516e-06
                     0.00067844      0.00538312        0.927342        0.312369     3.41931e-11     7.03925e-07      7.3882e-07     3.40756e-08
                   -1.31325e-05     2.87178e-06     1.25106e-06     1.55903e-07       -0.793635       -0.311771    -2.70252e-07     1.57815e-07
                   -9.72519e-06     2.07062e-06     3.10688e-07     5.07218e-07     4.80851e-08     -6.2982e-07       -0.793103       -0.309635
     4.082e+07           0.6637       -0.736775     0.000711937      0.00544447    -1.26055e-05     3.22347e-06    -9.73086e-06     2.85282e-06
                    0.000716268      0.00538769        0.929611        0.305704     6.30323e-09     7.06822e-07     7.34621e-07     3.01932e-08
                   -1.31946e-05     2.91725e-06     1.24549e-06     1.61493e-07       -0.794727       -0.307839    -2.48244e-07     1.41458e-07
                   -9.77167e-06     2.10088e-06     3.07937e-07     4.95616e-07     5.01685e-08      -6.279e-07       -0.794184         -0.3057
     4.084e+07          0.65942       -0.740914     0.000750174      0.00544896    -1.26418e-05     3.26607e-06     -9.7685e-06     2.87232e-06
                    0.000754111      0.00539198        0.931822        0.299048     1.27503e-08     7.09696e-07     7.30499e-07     2.62561e-08
                   -1.32565e-05     2.96499e-06     1.24003e-06     1.67037e-07       -0.795808       -0.303911    -2.26915e-07      1.2519e-07
                    -9.8179e-06      2.1329e-06     3.05089e-07     4.84269e-07     5.20037e-08    -6.25875e-07       -0.795253       -0.301769
     4.086e+07           0.6551       -0.745023      0.00078843      0.00545317    -1.26784e-05     3.31058e-06    -9.80619e-06     2.89365e-06
                    0.000791966      0.00539599        0.933975        0.292399     1.93733e-08     7.12546e-07     7.26451e-07     2.22648e-08
                   -1.33181e-05     3.01495e-06     1.23467e-06     1.72532e-07       -0.796877       -0.299988    -2.06254e-07     1.09015e-07
                   -9.86386e-06     2.16664e-06     3.02149e-07     4.73174e-07     5.35987e-08    -6.23743e-07       -0.796312       -0.297843
     4.088e+07         0.650739       -0.749103     0.000826703      0.00545709    -1.27154e-05       3.357e-06     -9.8439e-06     2.91677e-06
                    0.000829834      0.00539972        0.936071        0.285758     2.61703e-08     7.15367e-07     7.22473e-07     1.82196e-08
                   -1.33794e-05     3.06712e-06     1.22941e-06      1.7798e-07       -0.797936        -0.29607    -1.86248e-07     9.29414e-08
                   -9.90951e-06     2.20208e-06     2.99122e-07      4.6233e-07     5.49616e-08    -6.21503e-07       -0.797359       -0.293922
      4.09e+07         0.646339       -0.753154     0.000864992      0.00546072    -1.27526e-05     3.40531e-06     -9.8816e-06     2.94167e-06
                    0.000867713      0.00540318        0.938109        0.279125     3.31392e-08     7.18155e-07     7.18561e-07     1.41209e-08
                   -1.34404e-05     3.12146e-06     1.22426e-06     1.83379e-07       -0.798983       -0.292155    -1.66887e-07     7.69733e-08
                   -9.95484e-06     2.23921e-06     2.96013e-07     4.51733e-07     5.61002e-08    -6.19152e-07       -0.798395       -0.290005
     4.092e+07         0.641899       -0.757174     0.000903297      0.00546407    -1.27901e-05     3.45548e-06    -9.91927e-06     2.96832e-06
                    0.000905603      0.00540636        0.940092          0.2725      4.0278e-08     7.20906e-07     7.14712e-07     9.96916e-09
                    -1.3501e-05     3.17796e-06     1.21922e-06     1.88729e-07       -0.800019       -0.288245    -1.48157e-07     6.11168e-08
                   -9.99982e-06       2.278e-06     2.92825e-07     4.41381e-07     5.70223e-08    -6.16689e-07        -0.79942       -0.286092
     4.094e+07          0.63742       -0.761165     0.000941616      0.00546713    -1.28278e-05     3.50752e-06    -9.95688e-06     2.99671e-06
                    0.000943503      0.00540926        0.942018        0.265883     4.75844e-08     7.23619e-07     7.10922e-07     5.76496e-09
                   -1.35612e-05     3.23658e-06     1.21428e-06      1.9403e-07       -0.801044       -0.284339    -1.30048e-07     4.53774e-08
                   -1.00444e-05     2.31842e-06     2.89563e-07     4.31272e-07     5.77357e-08    -6.14113e-07       -0.800433       -0.282184
     4.096e+07         0.632904       -0.765125     0.000979949      0.00546991    -1.28656e-05      3.5614e-06    -9.99439e-06     3.02682e-06
                    0.000981414       0.0054119         0.94389        0.259275     5.50564e-08     7.26288e-07     7.07188e-07     1.50885e-09
                   -1.36209e-05     3.29729e-06     1.20944e-06     1.99281e-07       -0.802058       -0.280437    -1.12549e-07     2.97601e-08
                   -1.00887e-05     2.36046e-06     2.86231e-07     4.21404e-07     5.82478e-08    -6.11421e-07       -0.801435       -0.278279
     4.098e+07         0.628349       -0.769055       0.0010183      0.00547242    -1.29036e-05      3.6171e-06    -1.00318e-05     3.05862e-06
                     0.00101933      0.00541426        0.945706        0.252675     6.26918e-08     7.28911e-07     7.03506e-07    -2.79854e-09
                   -1.36802e-05     3.36008e-06     1.20471e-06     2.04482e-07        -0.80306       -0.276538    -9.56473e-08     1.42702e-08
                   -1.01325e-05     2.40408e-06     2.82833e-07     4.11774e-07     5.85662e-08    -6.08613e-07       -0.802425       -0.274378
       4.1e+07         0.623757       -0.772953      0.00105665      0.00547464    -1.29417e-05     3.67461e-06     -1.0069e-05      3.0921e-06
                     0.00105726      0.00541636        0.947469        0.246084     7.04886e-08     7.31484e-07     6.99873e-07    -7.15656e-09
                   -1.37391e-05     3.42491e-06     1.20008e-06     2.09631e-07       -0.804051       -0.272643    -7.93326e-08    -1.08766e-09
                   -1.01758e-05     2.44928e-06     2.79374e-07      4.0238e-07     5.86982e-08    -6.05688e-07       -0.803404       -0.270481
     4.102e+07         0.619127       -0.776821      0.00109502      0.00547659    -1.29798e-05     3.73392e-06    -1.01061e-05     3.12723e-06
                      0.0010952      0.00541819        0.949178        0.239502     7.84444e-08     7.34005e-07     6.96285e-07    -1.15645e-08
                   -1.37974e-05     3.49176e-06     1.19555e-06     2.14729e-07       -0.805031       -0.268751    -6.35938e-08    -1.63087e-08
                   -1.02188e-05     2.49601e-06     2.75857e-07      3.9322e-07     5.86511e-08    -6.02644e-07       -0.804371       -0.266587
     4.104e+07         0.614461       -0.780657       0.0011334      0.00547826     -1.3018e-05     3.79501e-06     -1.0143e-05     3.16399e-06
                     0.00113314      0.00541975        0.950834        0.232928     8.65572e-08     7.36469e-07      6.9274e-07    -1.60215e-08
                   -1.38551e-05      3.5606e-06     1.19113e-06     2.19775e-07       -0.805998       -0.264863    -4.84198e-08    -3.13884e-08
                   -1.02612e-05     2.54427e-06     2.72286e-07     3.84291e-07     5.84321e-08    -5.99481e-07       -0.805326       -0.262697
     4.106e+07         0.609759       -0.784462      0.00117179      0.00547966    -1.30562e-05     3.85786e-06    -1.01796e-05     3.20237e-06
                     0.00117109      0.00542105        0.952438        0.226363     9.48247e-08     7.38875e-07     6.89234e-07     -2.0527e-08
                   -1.39124e-05      3.6314e-06     1.18682e-06     2.24769e-07       -0.806955       -0.260978       -3.38e-08    -4.63224e-08
                   -1.03031e-05     2.59404e-06     2.68666e-07     3.75591e-07     5.80481e-08    -5.96198e-07        -0.80627        -0.25881
     4.108e+07         0.605021       -0.788235      0.00121019      0.00548079    -1.30944e-05     3.92246e-06    -1.02161e-05     3.24233e-06
                     0.00120905      0.00542209        0.953989        0.219807     1.03245e-07     7.41218e-07     6.85765e-07    -2.50799e-08
                    -1.3969e-05     3.70415e-06      1.1826e-06     2.29709e-07       -0.807899       -0.257096    -1.97237e-08    -6.11065e-08
                   -1.03446e-05     2.64527e-06        2.65e-07     3.67117e-07     5.75061e-08    -5.92794e-07       -0.807202       -0.254927
      4.11e+07         0.600248       -0.791976       0.0012486      0.00548164    -1.31325e-05     3.98878e-06    -1.02522e-05     3.28387e-06
                     0.00124701      0.00542287        0.955488         0.21326     1.11815e-07     7.43495e-07     6.82329e-07    -2.96795e-08
                    -1.4025e-05     3.77881e-06     1.17849e-06     2.34595e-07       -0.808832       -0.253217    -6.18027e-09    -7.57368e-08
                   -1.03855e-05     2.69797e-06     2.61292e-07     3.58868e-07      5.6813e-08    -5.89269e-07       -0.808122       -0.251046
     4.112e+07         0.595439       -0.795685      0.00128702      0.00548223    -1.31705e-05     4.05683e-06     -1.0288e-05     3.32695e-06
                     0.00128498      0.00542338        0.956937        0.206722     1.20533e-07     7.45705e-07     6.78923e-07    -3.43249e-08
                   -1.40803e-05     3.85536e-06     1.17448e-06     2.39426e-07       -0.809754       -0.249341     6.84066e-09    -9.02094e-08
                   -1.04258e-05      2.7521e-06     2.57545e-07      3.5084e-07     5.59755e-08    -5.85622e-07       -0.809031       -0.247169
     4.114e+07         0.590596       -0.799361      0.00132544      0.00548256    -1.32084e-05     4.12656e-06    -1.03236e-05     3.37157e-06
                     0.00132296      0.00542364        0.958335        0.200194     1.29397e-07     7.47844e-07     6.75544e-07     -3.9015e-08
                    -1.4135e-05     3.93377e-06     1.17057e-06     2.44202e-07       -0.810663       -0.245468     1.93494e-08     -1.0452e-07
                   -1.04656e-05     2.80764e-06     2.53763e-07     3.43031e-07     5.50002e-08    -5.81853e-07       -0.809927       -0.243295
     4.116e+07         0.585719       -0.803005      0.00136387      0.00548261    -1.32461e-05     4.19798e-06    -1.03588e-05     3.41769e-06
                     0.00136094      0.00542365        0.959682        0.193674     1.38404e-07     7.49909e-07     6.72191e-07     -4.3749e-08
                    -1.4189e-05     4.01401e-06     1.16676e-06     2.48922e-07       -0.811561       -0.241598     3.13562e-08    -1.18667e-07
                   -1.05048e-05     2.86456e-06      2.4995e-07     3.35439e-07     5.38936e-08    -5.77961e-07       -0.810812       -0.239423
     4.118e+07         0.580807       -0.806616      0.00140231      0.00548241    -1.32837e-05     4.27107e-06    -1.03936e-05      3.4653e-06
                     0.00139892       0.0054234         0.96098        0.187164     1.47553e-07     7.51897e-07     6.68859e-07    -4.85257e-08
                   -1.42423e-05     4.09607e-06     1.16306e-06     2.53586e-07       -0.812446        -0.23773     4.28711e-08    -1.32644e-07
                   -1.05434e-05     2.92286e-06     2.46109e-07     3.28061e-07     5.26622e-08    -5.73947e-07       -0.811684       -0.235554
      4.12e+07         0.575863       -0.810194      0.00144076      0.00548193     -1.3321e-05      4.3458e-06     -1.0428e-05     3.51438e-06
                     0.00143691      0.00542289        0.962229        0.180663      1.5684e-07     7.53805e-07     6.65546e-07    -5.33441e-08
                   -1.42949e-05     4.17991e-06     1.15945e-06     2.58192e-07        -0.81332       -0.233865     5.39041e-08     -1.4645e-07
                   -1.05814e-05      2.9825e-06     2.42244e-07     3.20895e-07     5.13123e-08     -5.6981e-07       -0.812544       -0.231688
     4.122e+07         0.570885       -0.813739      0.00147921       0.0054812    -1.33581e-05     4.42216e-06    -1.04621e-05     3.56491e-06
                     0.00147491      0.00542213        0.963428        0.174172     1.66264e-07     7.55632e-07      6.6225e-07    -5.82033e-08
                   -1.43466e-05     4.26551e-06     1.15595e-06      2.6274e-07       -0.814182       -0.230002      6.4465e-08    -1.60082e-07
                   -1.06188e-05     3.04347e-06     2.38357e-07     3.13939e-07     4.98501e-08    -5.65551e-07       -0.813393       -0.227825
     4.124e+07         0.565875       -0.817251      0.00151766      0.00548021     -1.3395e-05     4.50013e-06    -1.04957e-05     3.61686e-06
                      0.0015129      0.00542112        0.964579         0.16769     1.75822e-07     7.57373e-07     6.58968e-07    -6.31019e-08
                   -1.43977e-05     4.35285e-06     1.15254e-06     2.67229e-07       -0.815032       -0.226142     7.45637e-08    -1.73535e-07
                   -1.06555e-05     3.10574e-06     2.34453e-07      3.0719e-07     4.82818e-08     -5.6117e-07       -0.814229       -0.223964
     4.126e+07         0.560832       -0.820729      0.00155612      0.00547896    -1.34315e-05      4.5797e-06    -1.05289e-05     3.67021e-06
                     0.00155091      0.00541986        0.965682        0.161218     1.85512e-07     7.59027e-07     6.55698e-07     -6.8039e-08
                   -1.44479e-05     4.44189e-06     1.14924e-06     2.71658e-07       -0.815869       -0.222284     8.42096e-08    -1.86808e-07
                   -1.06915e-05     3.16929e-06     2.30534e-07     3.00645e-07     4.66133e-08    -5.56667e-07       -0.815053       -0.220105
     4.128e+07         0.555757       -0.824173      0.00159458      0.00547745    -1.34677e-05     4.66085e-06    -1.05616e-05     3.72496e-06
                     0.00158891      0.00541835        0.966737        0.154755     1.95331e-07     7.60592e-07     6.52436e-07    -7.30133e-08
                   -1.44973e-05     4.53261e-06     1.14603e-06     2.76027e-07       -0.816695       -0.218428     9.34125e-08    -1.99898e-07
                   -1.07269e-05      3.2341e-06     2.26604e-07     2.94303e-07     4.48507e-08    -5.52042e-07       -0.815864       -0.216249
      4.13e+07         0.550651       -0.827584      0.00163305      0.00547568    -1.35036e-05     4.74356e-06    -1.05938e-05     3.78106e-06
                     0.00162692      0.00541659        0.967745        0.148302     2.05277e-07     7.62064e-07     6.49182e-07    -7.80236e-08
                   -1.45458e-05       4.625e-06     1.14292e-06     2.80335e-07       -0.817508       -0.214574     1.02182e-07    -2.12801e-07
                   -1.07616e-05     3.30015e-06     2.22665e-07      2.8816e-07     4.29996e-08    -5.47295e-07       -0.816664       -0.212395
     4.132e+07         0.545514        -0.83096      0.00167152      0.00547366    -1.35391e-05     4.82781e-06    -1.06255e-05     3.83851e-06
                     0.00166493      0.00541459        0.968706        0.141859     2.15348e-07     7.63441e-07     6.45931e-07    -8.30687e-08
                   -1.45935e-05     4.71901e-06     1.13991e-06     2.84581e-07       -0.818309       -0.210723     1.10526e-07    -2.25517e-07
                   -1.07956e-05     3.36742e-06     2.18721e-07     2.82214e-07      4.1066e-08    -5.42428e-07       -0.817451       -0.208543
     4.134e+07         0.540346       -0.834303      0.00170999      0.00547139    -1.35743e-05     4.91359e-06    -1.06567e-05     3.89729e-06
                     0.00170294      0.00541233        0.969621        0.135425     2.25541e-07     7.64721e-07     6.42683e-07    -8.81473e-08
                   -1.46404e-05     4.81464e-06       1.137e-06     2.88764e-07       -0.819097       -0.206873     1.18456e-07    -2.38042e-07
                   -1.08288e-05     3.43589e-06     2.14775e-07     2.76463e-07     3.90553e-08    -5.37441e-07       -0.818225       -0.204694
     4.136e+07         0.535147        -0.83761      0.00174847      0.00546886     -1.3609e-05     5.00088e-06    -1.06874e-05     3.95737e-06
                     0.00174096      0.00540984        0.970489        0.129001     2.35854e-07     7.65901e-07     6.39435e-07    -9.32583e-08
                   -1.46863e-05     4.91184e-06     1.13418e-06     2.92883e-07       -0.819874       -0.203026     1.25979e-07    -2.50374e-07
                   -1.08614e-05     3.50553e-06     2.10829e-07     2.70904e-07     3.69732e-08    -5.32334e-07       -0.818987       -0.200846
     4.138e+07         0.529918       -0.840884      0.00178694      0.00546608    -1.36432e-05     5.08967e-06    -1.07175e-05     4.01873e-06
                     0.00177898       0.0054071        0.971312        0.122587     2.46284e-07      7.6698e-07     6.36185e-07    -9.84001e-08
                   -1.47313e-05     5.01061e-06     1.13146e-06     2.96938e-07       -0.820637        -0.19918     1.33106e-07    -2.62511e-07
                   -1.08932e-05     3.57633e-06     2.06887e-07     2.65535e-07      3.4825e-08    -5.27109e-07       -0.819737       -0.197001
      4.14e+07          0.52466       -0.844122      0.00182542      0.00546305     -1.3677e-05     5.17992e-06    -1.07471e-05     4.08136e-06
                       0.001817      0.00540412        0.972089        0.116183      2.5683e-07     7.67955e-07     6.32931e-07    -1.03572e-07
                   -1.47754e-05     5.11091e-06     1.12883e-06     3.00928e-07       -0.821389       -0.195336     1.39844e-07    -2.74452e-07
                   -1.09242e-05     3.64826e-06     2.02951e-07     2.60353e-07     3.26162e-08    -5.21765e-07       -0.820474       -0.193157
     4.142e+07         0.519372       -0.847326       0.0018639      0.00545977    -1.37103e-05     5.27164e-06     -1.0776e-05     4.14523e-06
                     0.00185502      0.00540089        0.972822        0.109789     2.67488e-07     7.68823e-07      6.2967e-07    -1.08771e-07
                   -1.48185e-05     5.21271e-06     1.12631e-06     3.04851e-07       -0.822128       -0.191494     1.46203e-07    -2.86193e-07
                   -1.09545e-05     3.72131e-06     1.99024e-07     2.55356e-07      3.0352e-08    -5.16305e-07       -0.821199       -0.189316
     4.144e+07         0.514055       -0.850495      0.00190239      0.00545624    -1.37431e-05     5.36479e-06    -1.08044e-05     4.21033e-06
                     0.00189304      0.00539743        0.973509        0.103405     2.78256e-07     7.69583e-07     6.26401e-07    -1.13998e-07
                   -1.48607e-05     5.31601e-06     1.12387e-06     3.08708e-07       -0.822854       -0.187654     1.52191e-07    -2.97735e-07
                    -1.0984e-05     3.79545e-06     1.95108e-07     2.50541e-07     2.80375e-08    -5.10729e-07        -0.82191       -0.185476
     4.146e+07         0.508709       -0.853628      0.00194087      0.00545247    -1.37754e-05     5.45937e-06    -1.08322e-05     4.27662e-06
                     0.00193107      0.00539372        0.974152       0.0970302     2.89131e-07     7.70232e-07     6.23122e-07    -1.19251e-07
                   -1.49018e-05     5.42076e-06     1.12153e-06     3.12497e-07       -0.823568       -0.183815     1.57817e-07    -3.09074e-07
                   -1.10127e-05     3.87066e-06     1.91207e-07     2.45905e-07     2.56777e-08    -5.05037e-07        -0.82261       -0.181638
     4.148e+07         0.503335       -0.856726      0.00197936      0.00544844    -1.38071e-05     5.55535e-06    -1.08593e-05     4.34411e-06
                      0.0019691      0.00538977        0.974752       0.0906659     3.00112e-07     7.70769e-07      6.1983e-07    -1.24527e-07
                    -1.4942e-05     5.52695e-06     1.11928e-06     3.16218e-07       -0.824269       -0.179978     1.63089e-07     -3.2021e-07
                   -1.10406e-05     3.94693e-06     1.87324e-07     2.41447e-07     2.32778e-08    -4.99232e-07       -0.823296       -0.177802
      4.15e+07         0.497933       -0.859789      0.00201784      0.00544417    -1.38382e-05     5.65272e-06    -1.08857e-05     4.41275e-06
                     0.00200713      0.00538559        0.975307       0.0843115     3.11195e-07     7.71191e-07     6.16525e-07    -1.29826e-07
                   -1.49812e-05     5.63455e-06     1.11712e-06     3.19868e-07       -0.824957       -0.176142     1.68016e-07    -3.31142e-07
                   -1.10677e-05     4.02423e-06     1.83459e-07     2.37164e-07     2.08425e-08    -4.93315e-07        -0.82397       -0.173967
     4.152e+07         0.492503       -0.862816      0.00205633      0.00543966    -1.38688e-05     5.75145e-06    -1.09115e-05     4.48255e-06
                     0.00204516      0.00538117        0.975819       0.0779672     3.22379e-07     7.71497e-07     6.13205e-07    -1.35146e-07
                   -1.50193e-05     5.74353e-06     1.11506e-06     3.23449e-07       -0.825632       -0.172308     1.72607e-07    -3.41867e-07
                    -1.1094e-05     4.10255e-06     1.79617e-07     2.33053e-07     1.83766e-08    -4.87286e-07        -0.82463       -0.170134
     4.154e+07         0.487046       -0.865807      0.00209482       0.0054349    -1.38987e-05     5.85154e-06    -1.09367e-05     4.55346e-06
                     0.00208319      0.00537651        0.976288        0.071633      3.3366e-07     7.71684e-07     6.09867e-07    -1.40487e-07
                   -1.50564e-05     5.85389e-06     1.11309e-06     3.26959e-07       -0.826295       -0.168476     1.76868e-07    -3.52385e-07
                   -1.11194e-05     4.18186e-06     1.75799e-07     2.29112e-07     1.58848e-08    -4.81147e-07       -0.825278       -0.166303
     4.156e+07         0.481562       -0.868763       0.0021333      0.00542989     -1.3928e-05     5.95296e-06    -1.09611e-05     4.62548e-06
                     0.00212123      0.00537161        0.976715       0.0653089     3.45037e-07      7.7175e-07      6.0651e-07    -1.45845e-07
                   -1.50925e-05     5.96558e-06      1.1112e-06     3.30396e-07       -0.826945       -0.164645     1.80809e-07    -3.62694e-07
                    -1.1144e-05     4.26214e-06     1.72007e-07     2.25337e-07     1.33718e-08    -4.74899e-07       -0.825913       -0.162473
     4.158e+07         0.476051       -0.871682      0.00217179      0.00542465    -1.39566e-05      6.0557e-06    -1.09849e-05     4.69859e-06
                     0.00215926      0.00536648        0.977099       0.0589949     3.56506e-07     7.71695e-07     6.03133e-07    -1.51221e-07
                   -1.51275e-05     6.07859e-06     1.10941e-06      3.3376e-07       -0.827582       -0.160815     1.84437e-07    -3.72795e-07
                   -1.11678e-05     4.34338e-06     1.68245e-07     2.21728e-07      1.0842e-08    -4.68544e-07       -0.826535       -0.158645
      4.16e+07         0.470514       -0.874566      0.00221028      0.00541916    -1.39845e-05     6.15974e-06    -1.10079e-05     4.77277e-06
                      0.0021973      0.00536111        0.977441       0.0526911     3.68065e-07     7.71516e-07     5.99734e-07    -1.56611e-07
                   -1.51614e-05     6.19289e-06      1.1077e-06     3.37051e-07       -0.828206       -0.156987      1.8776e-07    -3.82685e-07
                   -1.11907e-05     4.42556e-06     1.64515e-07     2.18281e-07     8.29981e-09    -4.62083e-07       -0.827144       -0.154819
     4.162e+07         0.464951       -0.877413      0.00224876      0.00541343    -1.40118e-05     6.26505e-06    -1.10302e-05     4.84799e-06
                     0.00223534      0.00535551        0.977741       0.0463974     3.79711e-07     7.71211e-07     5.96312e-07    -1.62016e-07
                   -1.51942e-05     6.30847e-06     1.10609e-06     3.40267e-07       -0.828817        -0.15316     1.90786e-07    -3.92365e-07
                   -1.12127e-05     4.50865e-06     1.60817e-07     2.14993e-07     5.74962e-09    -4.55518e-07        -0.82774       -0.150993
     4.164e+07         0.459362       -0.880223      0.00228725      0.00540746    -1.40383e-05     6.37163e-06    -1.10518e-05     4.92424e-06
                     0.00227338      0.00534967        0.977999        0.040114     3.91443e-07     7.70778e-07     5.92865e-07    -1.67433e-07
                   -1.52259e-05     6.42529e-06     1.10456e-06     3.43408e-07       -0.829415       -0.149334     1.93523e-07    -4.01832e-07
                   -1.12339e-05     4.59264e-06     1.57156e-07     2.11863e-07     3.19564e-09    -4.48851e-07       -0.828323        -0.14717
     4.166e+07         0.453747       -0.882998      0.00232573      0.00540125    -1.40642e-05     6.47946e-06    -1.10726e-05      5.0015e-06
                     0.00231142       0.0053436        0.978216       0.0338407     4.03257e-07     7.70217e-07     5.89391e-07     -1.7286e-07
                   -1.52565e-05     6.54333e-06     1.10311e-06     3.46472e-07       -0.829999       -0.145509     1.95978e-07    -4.11088e-07
                   -1.12542e-05     4.67751e-06     1.53532e-07     2.08887e-07      6.4203e-10    -4.42083e-07       -0.828893       -0.143347
     4.168e+07         0.448108       -0.885735      0.00236422       0.0053948    -1.40892e-05     6.58851e-06    -1.10927e-05     5.07975e-06
                     0.00234946       0.0053373        0.978392       0.0275777     4.15152e-07     7.69524e-07      5.8589e-07    -1.78297e-07
                   -1.52859e-05     6.66257e-06     1.10175e-06     3.49459e-07       -0.830571       -0.141686     1.98159e-07    -4.20131e-07
                   -1.12736e-05     4.76324e-06     1.49949e-07     2.06063e-07    -1.90716e-09    -4.35215e-07       -0.829449       -0.139526
      4.17e+07         0.442444       -0.888436       0.0024027      0.00538811    -1.41135e-05     6.69877e-06    -1.11119e-05     5.15897e-06
                     0.00238751      0.00533076        0.978527       0.0213249     4.27123e-07       7.687e-07      5.8236e-07    -1.83741e-07
                   -1.53142e-05       6.783e-06     1.10048e-06     3.52368e-07       -0.831129       -0.137864     2.00073e-07    -4.28961e-07
                   -1.12921e-05     4.84981e-06     1.46407e-07     2.03389e-07    -4.44795e-09    -4.28251e-07       -0.829992       -0.135707
     4.172e+07         0.436755       -0.891099      0.00244118      0.00538118    -1.41371e-05     6.81023e-06    -1.11305e-05     5.23915e-06
                     0.00242555        0.005324        0.978622       0.0150824      4.3917e-07     7.67742e-07       5.788e-07    -1.89192e-07
                   -1.53414e-05     6.90458e-06     1.09929e-06     3.55198e-07       -0.831675       -0.134043     2.01728e-07    -4.37578e-07
                   -1.13097e-05      4.9372e-06      1.4291e-07     2.00862e-07    -6.97645e-09     -4.2119e-07       -0.830522       -0.131888
     4.174e+07         0.431042       -0.893726      0.00247967      0.00537402    -1.41598e-05     6.92286e-06    -1.11482e-05     5.32026e-06
                      0.0024636        0.005317        0.978677      0.00885012     4.51288e-07     7.66648e-07     5.75209e-07    -1.94646e-07
                   -1.53674e-05     7.02729e-06     1.09818e-06     3.57948e-07       -0.832207       -0.130223      2.0313e-07    -4.45981e-07
                   -1.13264e-05      5.0254e-06     1.39458e-07      1.9848e-07    -9.48887e-09    -4.14036e-07       -0.831039       -0.128071
     4.176e+07         0.425305       -0.896316      0.00251815      0.00536662    -1.41817e-05     7.03664e-06    -1.11651e-05     5.40228e-06
                     0.00250165      0.00530977        0.978692      0.00262816     4.63477e-07     7.65418e-07     5.71586e-07    -2.00104e-07
                   -1.53922e-05     7.15111e-06     1.09715e-06     3.60618e-07       -0.832725       -0.126405     2.04288e-07     -4.5417e-07
                   -1.13422e-05     5.11438e-06     1.36054e-07      1.9624e-07    -1.19815e-08    -4.06791e-07       -0.831542       -0.124255
     4.178e+07         0.419544       -0.898868      0.00255663      0.00535898    -1.42028e-05     7.15157e-06    -1.11812e-05      5.4852e-06
                      0.0025397       0.0053023        0.978666     -0.00358349     4.75732e-07      7.6405e-07      5.6793e-07    -2.05563e-07
                   -1.54159e-05     7.27602e-06      1.0962e-06     3.63205e-07        -0.83323       -0.122587     2.05207e-07    -4.62146e-07
                   -1.13571e-05     5.20414e-06     1.32699e-07     1.94139e-07    -1.44507e-08    -3.99455e-07       -0.832032       -0.120441
      4.18e+07          0.41376       -0.901383      0.00259511       0.0053511     -1.4223e-05     7.26762e-06    -1.11965e-05       5.569e-06
                     0.00257775      0.00529461        0.978602     -0.00978482     4.88052e-07     7.62542e-07     5.64239e-07    -2.11022e-07
                   -1.54383e-05       7.402e-06     1.09534e-06     3.65711e-07       -0.833722       -0.118771     2.05896e-07    -4.69908e-07
                   -1.13711e-05     5.29464e-06     1.29396e-07     1.92176e-07    -1.68929e-08    -3.92031e-07       -0.832508       -0.116628
     4.182e+07         0.407953        -0.90386      0.00263358      0.00534299    -1.42424e-05     7.38477e-06    -1.12109e-05     5.65366e-06
                      0.0026158      0.00528669        0.978498      -0.0159758     5.00434e-07     7.60894e-07     5.60512e-07    -2.16479e-07
                   -1.54596e-05     7.52902e-06     1.09455e-06     3.68133e-07         -0.8342       -0.114956      2.0636e-07    -4.77456e-07
                   -1.13841e-05     5.38587e-06     1.26146e-07     1.90347e-07    -1.93048e-08    -3.84522e-07       -0.832971       -0.112816
     4.184e+07         0.402124         -0.9063      0.00267206      0.00533465    -1.42609e-05     7.50301e-06    -1.12245e-05     5.73916e-06
                     0.00265385      0.00527854        0.978355      -0.0221565     5.12876e-07     7.59103e-07      5.5675e-07    -2.21932e-07
                   -1.54796e-05     7.65706e-06     1.09384e-06     3.70471e-07       -0.834665       -0.111141     2.06607e-07    -4.84791e-07
                   -1.13962e-05     5.47782e-06     1.22951e-07      1.8865e-07    -2.16828e-08    -3.76929e-07        -0.83342       -0.109005
     4.186e+07         0.396272       -0.908702      0.00271054      0.00532606    -1.42785e-05     7.62233e-06    -1.12373e-05     5.82549e-06
                     0.00269191      0.00527015        0.978173      -0.0283268     5.25374e-07      7.5717e-07      5.5295e-07     -2.2738e-07
                   -1.54984e-05     7.78611e-06      1.0932e-06     3.72725e-07       -0.835116       -0.107328     2.06643e-07    -4.91913e-07
                   -1.14073e-05     5.57047e-06     1.19812e-07     1.87083e-07    -2.40238e-08    -3.69254e-07       -0.833856       -0.105195
     4.188e+07         0.390398       -0.911066      0.00274901      0.00531725    -1.42953e-05     7.74269e-06    -1.12492e-05     5.91262e-06
                     0.00272997      0.00526154        0.977953      -0.0344867     5.37926e-07     7.55091e-07     5.49113e-07    -2.32822e-07
                    -1.5516e-05     7.91613e-06     1.09264e-06     3.74892e-07       -0.835554       -0.103516     2.06475e-07    -4.98822e-07
                   -1.14175e-05      5.6638e-06     1.16731e-07     1.85643e-07    -2.63245e-08      -3.615e-07       -0.834278       -0.101386
      4.19e+07         0.384502       -0.913392      0.00278748      0.00530819    -1.43111e-05     7.86409e-06    -1.12603e-05     6.00054e-06
                     0.00276803       0.0052527        0.977694      -0.0406362      5.5053e-07     7.52867e-07     5.45237e-07    -2.38255e-07
                   -1.55324e-05     8.04712e-06     1.09216e-06     3.76973e-07       -0.835978      -0.0997045     2.06109e-07    -5.05518e-07
                   -1.14268e-05     5.75779e-06      1.1371e-07     1.84328e-07    -2.85818e-08    -3.53668e-07       -0.834686       -0.097579
     4.192e+07         0.378584        -0.91568      0.00282596      0.00529891     -1.4326e-05      7.9865e-06    -1.12705e-05     6.08924e-06
                     0.00280609      0.00524362        0.977397      -0.0467753     5.63183e-07     7.50497e-07     5.41321e-07    -2.43677e-07
                   -1.55475e-05     8.17904e-06     1.09175e-06     3.78967e-07       -0.836388      -0.0958943     2.05552e-07    -5.12003e-07
                   -1.14351e-05     5.85242e-06      1.1075e-07     1.83135e-07    -3.07927e-08    -3.45761e-07       -0.835081      -0.0937728
     4.194e+07         0.372645        -0.91793      0.00286443      0.00528938    -1.43399e-05     8.10992e-06    -1.12798e-05     6.17868e-06
                     0.00284415      0.00523432        0.977062      -0.0529041     5.75882e-07     7.47978e-07     5.37366e-07    -2.49089e-07
                   -1.55614e-05     8.31187e-06     1.09141e-06     3.80872e-07       -0.836785      -0.0920851     2.04811e-07    -5.18276e-07
                   -1.14424e-05     5.94769e-06     1.07853e-07     1.82061e-07    -3.29542e-08    -3.37782e-07       -0.835462      -0.0899676
     4.196e+07         0.366685       -0.920141       0.0029029      0.00527963    -1.43529e-05     8.23432e-06    -1.12882e-05     6.26886e-06
                     0.00288222      0.00522479        0.976689      -0.0590224     5.88624e-07     7.45311e-07      5.3337e-07    -2.54487e-07
                    -1.5574e-05     8.44561e-06     1.09114e-06     3.82689e-07       -0.837167      -0.0882769      2.0389e-07    -5.24338e-07
                   -1.14488e-05     6.04357e-06     1.05019e-07     1.81105e-07    -3.50635e-08    -3.29732e-07       -0.835829      -0.0861637
     4.198e+07         0.360705       -0.922314      0.00294136      0.00526964    -1.43649e-05     8.35969e-06    -1.12957e-05     6.35976e-06
                     0.00292028      0.00521503        0.976279      -0.0651303     6.01408e-07     7.42493e-07     5.29332e-07     -2.5987e-07
                   -1.55854e-05     8.58021e-06     1.09094e-06     3.84416e-07       -0.837536      -0.0844696     2.02798e-07     -5.3019e-07
                   -1.14542e-05     6.14004e-06     1.02251e-07     1.80263e-07    -3.71177e-08    -3.21613e-07       -0.836183      -0.0823608
       4.2e+07         0.354704       -0.924449      0.00297983      0.00525942     -1.4376e-05     8.48601e-06    -1.13024e-05     6.45136e-06
                     0.00295835      0.00520504        0.975831      -0.0712277     6.14231e-07     7.39525e-07     5.25253e-07    -2.65236e-07
                   -1.55955e-05     8.71567e-06     1.09082e-06     3.86052e-07       -0.837892      -0.0806633     2.01538e-07    -5.35833e-07
                   -1.14587e-05     6.23709e-06     9.95496e-08     1.79533e-07    -3.91141e-08    -3.13429e-07       -0.836522      -0.0785591
     4.202e+07         0.348682       -0.926545       0.0030183      0.00524896    -1.43861e-05     8.61326e-06    -1.13081e-05     6.54365e-06
                     0.00299642      0.00519482        0.975346      -0.0773147     6.27089e-07     7.36405e-07     5.21132e-07    -2.70585e-07
                   -1.56043e-05     8.85197e-06     1.09075e-06     3.87597e-07       -0.838233       -0.076858     2.00119e-07    -5.41267e-07
                   -1.14622e-05     6.33471e-06     9.69161e-08     1.78914e-07    -4.10502e-08    -3.05181e-07       -0.836848      -0.0747585
     4.204e+07         0.342641       -0.928602      0.00305676      0.00523827    -1.43951e-05     8.74142e-06    -1.13129e-05      6.6366e-06
                      0.0030345      0.00518437        0.974824      -0.0833912     6.39981e-07     7.33133e-07     5.16967e-07    -2.75913e-07
                   -1.56118e-05     8.98908e-06     1.09076e-06     3.89049e-07        -0.83856      -0.0730537     1.98545e-07    -5.46493e-07
                   -1.14647e-05     6.43287e-06      9.4352e-08     1.78401e-07    -4.29234e-08    -2.96872e-07       -0.837159       -0.070959
     4.206e+07          0.33658        -0.93062      0.00309522      0.00522734    -1.44032e-05     8.87049e-06    -1.13169e-05      6.7302e-06
                     0.00307257      0.00517369        0.974264      -0.0894572     6.52903e-07     7.29707e-07      5.1276e-07     -2.8122e-07
                   -1.56181e-05     9.12698e-06     1.09083e-06     3.90409e-07       -0.838873      -0.0692504     1.96822e-07    -5.51512e-07
                   -1.14662e-05     6.53156e-06     9.18583e-08     1.77994e-07    -4.47311e-08    -2.88504e-07       -0.837457      -0.0671606
     4.208e+07           0.3305         -0.9326      0.00313368      0.00521618    -1.44102e-05     9.00043e-06    -1.13199e-05     6.82444e-06
                     0.00311065      0.00516278        0.973669      -0.0955128     6.65853e-07     7.26127e-07     5.08509e-07    -2.86504e-07
                    -1.5623e-05     9.26566e-06     1.09096e-06     3.91676e-07       -0.839173       -0.065448     1.94957e-07    -5.56326e-07
                   -1.14668e-05     6.63077e-06     8.94362e-08     1.77689e-07    -4.64711e-08     -2.8008e-07        -0.83774      -0.0633633
      4.21e+07         0.324401        -0.93454      0.00317214      0.00520479    -1.44162e-05     9.13124e-06     -1.1322e-05     6.91929e-06
                     0.00314873      0.00515164        0.973036       -0.101558     6.78828e-07     7.22392e-07     5.04215e-07    -2.91764e-07
                   -1.56267e-05     9.40509e-06     1.09116e-06     3.92848e-07       -0.839458      -0.0616466     1.92954e-07    -5.60935e-07
                   -1.14663e-05     6.73048e-06      8.7087e-08     1.77483e-07    -4.81409e-08    -2.71602e-07        -0.83801      -0.0595672
     4.212e+07         0.318283       -0.936441       0.0032106      0.00519316    -1.44212e-05      9.2629e-06    -1.13231e-05     7.01474e-06
                     0.00318681      0.00514027        0.972368       -0.107592     6.91827e-07     7.18501e-07     4.99876e-07    -2.96997e-07
                   -1.56291e-05     9.54525e-06     1.09142e-06     3.93925e-07       -0.839729      -0.0578462     1.90819e-07    -5.65341e-07
                   -1.14649e-05     6.83067e-06     8.48116e-08     1.77376e-07    -4.97385e-08    -2.63073e-07       -0.838265      -0.0557722
     4.214e+07         0.312146       -0.938303      0.00324906       0.0051813    -1.44251e-05     9.39539e-06    -1.13233e-05     7.11078e-06
                      0.0032249      0.00512867        0.971663       -0.113616     7.04845e-07     7.14453e-07     4.95493e-07    -3.02202e-07
                   -1.56302e-05     9.68613e-06     1.09173e-06     3.94906e-07       -0.839986      -0.0540468     1.88559e-07    -5.69543e-07
                   -1.14625e-05     6.93133e-06     8.26111e-08     1.77363e-07    -5.12615e-08    -2.54494e-07       -0.838507      -0.0519783
     4.216e+07         0.305991       -0.940126      0.00328752      0.00516921     -1.4428e-05      9.5287e-06    -1.13226e-05     7.20739e-06
                     0.00326299      0.00511684        0.970922        -0.11963     7.17881e-07     7.10249e-07     4.91066e-07    -3.07378e-07
                   -1.56299e-05     9.82771e-06     1.09211e-06     3.95791e-07       -0.840229      -0.0502483     1.86177e-07    -5.73545e-07
                   -1.14592e-05     7.03244e-06     8.04865e-08     1.77443e-07     -5.2708e-08     -2.4587e-07       -0.838734      -0.0481855
     4.218e+07         0.299818       -0.941909      0.00332597      0.00515687    -1.44298e-05     9.66281e-06     -1.1321e-05     7.30454e-06
                     0.00330108      0.00510478        0.970144       -0.125633     7.30932e-07     7.05886e-07     4.86594e-07    -3.12523e-07
                   -1.56284e-05     9.96996e-06     1.09254e-06     3.96579e-07       -0.840457      -0.0464509      1.8368e-07    -5.77347e-07
                   -1.14548e-05     7.13399e-06     7.84388e-08     1.77614e-07    -5.40758e-08    -2.37201e-07       -0.838947      -0.0443939
      4.22e+07         0.293627       -0.943653      0.00336443      0.00514431    -1.44305e-05      9.7977e-06    -1.13184e-05     7.40224e-06
                     0.00333917      0.00509248        0.969332       -0.131625     7.43995e-07     7.01366e-07     4.82078e-07    -3.17635e-07
                   -1.56255e-05     1.01129e-05     1.09303e-06     3.97269e-07       -0.840671      -0.0426545     1.81073e-07     -5.8095e-07
                   -1.14495e-05     7.23596e-06      7.6469e-08     1.77872e-07    -5.53632e-08    -2.28491e-07       -0.839145      -0.0406034
     4.222e+07         0.287419       -0.945356      0.00340288      0.00513151    -1.44302e-05     9.93336e-06    -1.13148e-05     7.50045e-06
                     0.00337726      0.00507996        0.968483       -0.137606     7.57068e-07     6.96686e-07     4.77517e-07    -3.22712e-07
                   -1.56213e-05     1.02564e-05     1.09358e-06     3.97861e-07       -0.840871      -0.0388591     1.78361e-07    -5.84356e-07
                   -1.14431e-05     7.33835e-06     7.45778e-08     1.78215e-07    -5.65682e-08    -2.19742e-07        -0.83933      -0.0368141
     4.224e+07         0.281193        -0.94702      0.00344133      0.00511848    -1.44287e-05     1.00698e-05    -1.13103e-05     7.59917e-06
                     0.00341536       0.0050672        0.967599       -0.143577     7.70148e-07     6.91848e-07     4.72911e-07    -3.27754e-07
                   -1.56158e-05     1.04006e-05     1.09417e-06     3.98354e-07       -0.841057      -0.0350647     1.75548e-07    -5.87566e-07
                   -1.14358e-05     7.44112e-06     7.27662e-08     1.78642e-07    -5.76891e-08    -2.10958e-07         -0.8395      -0.0330259
     4.226e+07          0.27495       -0.948645      0.00347978      0.00510521    -1.44262e-05     1.02069e-05    -1.13049e-05     7.69838e-06
                     0.00345346      0.00505421        0.966679       -0.149538     7.83232e-07     6.86849e-07      4.6826e-07    -3.32759e-07
                    -1.5609e-05     1.05454e-05     1.09482e-06     3.98747e-07       -0.841228      -0.0312714     1.72641e-07    -5.90581e-07
                   -1.14275e-05     7.54428e-06     7.10351e-08     1.79149e-07    -5.87241e-08    -2.02139e-07       -0.839655       -0.029239
     4.228e+07          0.26869       -0.950229      0.00351823       0.0050917    -1.44225e-05     1.03448e-05    -1.12985e-05     7.79807e-06
                     0.00349157      0.00504099        0.965725       -0.155488     7.96318e-07      6.8169e-07     4.63564e-07    -3.37724e-07
                   -1.56009e-05     1.06907e-05     1.09552e-06     3.99039e-07       -0.841385      -0.0274791     1.69644e-07    -5.93404e-07
                   -1.14182e-05      7.6478e-06      6.9385e-08     1.79735e-07    -5.96717e-08    -1.93289e-07       -0.839797      -0.0254532
      4.23e+07         0.262414       -0.951773      0.00355668      0.00507796    -1.44177e-05     1.04833e-05    -1.12911e-05     7.89821e-06
                     0.00352967      0.00502754        0.964735       -0.161427     8.09403e-07     6.76371e-07     4.58824e-07     -3.4265e-07
                   -1.55914e-05     1.08367e-05     1.09627e-06     3.99231e-07       -0.841528      -0.0236879     1.66561e-07    -5.96035e-07
                   -1.14079e-05     7.75168e-06     6.78169e-08     1.80396e-07    -6.05302e-08    -1.84412e-07       -0.839924      -0.0216686
     4.232e+07         0.256122       -0.953277      0.00359513      0.00506398    -1.44118e-05     1.06226e-05    -1.12828e-05      7.9988e-06
                     0.00356778      0.00501385        0.963709       -0.167355     8.22485e-07     6.70891e-07      4.5404e-07    -3.47533e-07
                   -1.55806e-05     1.09831e-05     1.09707e-06     3.99322e-07       -0.841656      -0.0198977     1.63398e-07    -5.98477e-07
                   -1.13966e-05     7.85589e-06     6.63314e-08     1.81131e-07    -6.12983e-08    -1.75508e-07       -0.840036      -0.0178853
     4.234e+07         0.249813        -0.95474      0.00363357      0.00504976    -1.44048e-05     1.07625e-05    -1.12735e-05     8.09981e-06
                     0.00360589      0.00499992        0.962649       -0.173273     8.35561e-07     6.65249e-07     4.49212e-07    -3.52372e-07
                   -1.55684e-05     1.11301e-05     1.09791e-06      3.9931e-07       -0.841769      -0.0161087     1.60159e-07    -6.00731e-07
                   -1.13843e-05     7.96043e-06     6.49291e-08     1.81938e-07    -6.19744e-08    -1.66581e-07       -0.840134      -0.0141032
     4.236e+07         0.243489       -0.956163      0.00367202      0.00503531    -1.43966e-05     1.09031e-05    -1.12633e-05     8.20124e-06
                     0.00364401      0.00498576        0.961555        -0.17918     8.48628e-07     6.59446e-07     4.44339e-07    -3.57166e-07
                    -1.5555e-05     1.12777e-05      1.0988e-06     3.99196e-07       -0.841868      -0.0123208     1.56849e-07    -6.02798e-07
                   -1.13711e-05     8.06527e-06     6.36108e-08     1.82813e-07    -6.25572e-08    -1.57633e-07       -0.840217      -0.0103223
     4.238e+07         0.237149       -0.957546      0.00371046      0.00502062    -1.43873e-05     1.10443e-05    -1.12521e-05     8.30307e-06
                     0.00368212      0.00497137        0.960425       -0.185076     8.61684e-07     6.53481e-07     4.39423e-07    -3.61914e-07
                   -1.55401e-05     1.14257e-05     1.09973e-06     3.98979e-07       -0.841952       -0.008534     1.53472e-07    -6.04681e-07
                   -1.13568e-05     8.17041e-06     6.23769e-08     1.83754e-07    -6.30455e-08    -1.48668e-07       -0.840286     -0.00654275
      4.24e+07         0.230794       -0.958888       0.0037489      0.00500569    -1.43768e-05     1.11861e-05    -1.12399e-05     8.40528e-06
                     0.00372024      0.00495674        0.959261       -0.190961     8.74726e-07     6.47354e-07     4.34463e-07    -3.66614e-07
                    -1.5524e-05     1.15742e-05      1.1007e-06     3.98658e-07       -0.842022     -0.00474837     1.50033e-07    -6.06381e-07
                   -1.13416e-05     8.27584e-06     6.12281e-08      1.8476e-07    -6.34381e-08    -1.39687e-07        -0.84034     -0.00276446
     4.242e+07         0.224424       -0.960189      0.00378734      0.00499052    -1.43652e-05     1.13286e-05    -1.12268e-05     8.50787e-06
                     0.00375836      0.00494187        0.958062       -0.196835     8.87751e-07     6.41065e-07     4.29461e-07    -3.71264e-07
                   -1.55065e-05     1.17231e-05     1.10171e-06     3.98233e-07       -0.842077    -0.000963918     1.46536e-07      -6.079e-07
                   -1.13253e-05     8.38154e-06     6.01648e-08     1.85828e-07    -6.37339e-08    -1.30694e-07        -0.84038      0.00101252
     4.244e+07         0.218039       -0.961449      0.00382578      0.00497511    -1.43524e-05     1.14716e-05    -1.12126e-05     8.61081e-06
                     0.00379649      0.00492677        0.956829       -0.202699     9.00758e-07     6.34613e-07     4.24415e-07    -3.75863e-07
                   -1.54877e-05     1.18725e-05     1.10276e-06     3.97703e-07       -0.842117      0.00281934     1.42986e-07     -6.0924e-07
                   -1.13081e-05     8.48749e-06     5.91876e-08     1.86955e-07    -6.39317e-08     -1.2169e-07       -0.840405      0.00478817
     4.246e+07         0.211639       -0.962669      0.00386422      0.00495946    -1.43385e-05     1.16153e-05    -1.11975e-05     8.71409e-06
                     0.00383461      0.00491143        0.955562       -0.208552     9.13742e-07     6.27999e-07     4.19328e-07     -3.8041e-07
                   -1.54675e-05     1.20224e-05     1.10385e-06     3.97069e-07       -0.842143      0.00660138     1.39386e-07    -6.10403e-07
                   -1.12899e-05     8.59369e-06     5.82969e-08     1.88139e-07    -6.40306e-08     -1.1268e-07       -0.840415      0.00856247
     4.248e+07         0.205226       -0.963847      0.00390265      0.00494357    -1.43233e-05     1.17594e-05    -1.11815e-05      8.8177e-06
                     0.00387274      0.00489584         0.95426       -0.214394     9.26703e-07     6.21223e-07     4.14198e-07    -3.84902e-07
                    -1.5446e-05     1.21726e-05     1.10498e-06     3.96329e-07       -0.842153       0.0103822     1.35741e-07     -6.1139e-07
                   -1.12707e-05     8.70012e-06     5.74932e-08     1.89379e-07    -6.40297e-08    -1.03664e-07        -0.84041       0.0123354
      4.25e+07         0.198798       -0.964984      0.00394108      0.00492744     -1.4307e-05     1.19042e-05    -1.11644e-05     8.92163e-06
                     0.00391087      0.00488002        0.952924       -0.220225     9.39636e-07     6.14284e-07     4.09027e-07     -3.8934e-07
                   -1.54231e-05     1.23233e-05     1.10613e-06     3.95483e-07       -0.842149       0.0141617     1.32055e-07    -6.12204e-07
                   -1.12505e-05     8.80677e-06     5.67767e-08     1.90671e-07    -6.39281e-08    -9.46465e-08       -0.840391       0.0161069
     4.252e+07         0.192356        -0.96608      0.00397951      0.00491107    -1.42895e-05     1.20494e-05    -1.11464e-05     9.02586e-06
                       0.003949      0.00486396        0.951554       -0.226044     9.52541e-07     6.07182e-07     4.03816e-07     -3.9372e-07
                   -1.53989e-05     1.24743e-05     1.10732e-06     3.94531e-07        -0.84213       0.0179399     1.28332e-07    -6.12846e-07
                   -1.12294e-05     8.91363e-06     5.61478e-08     1.92013e-07    -6.37251e-08    -8.56294e-08       -0.840357        0.019877
     4.254e+07           0.1859       -0.967135      0.00401794      0.00489446    -1.42708e-05     1.21952e-05    -1.11274e-05     9.13037e-06
                     0.00398714      0.00484766         0.95015       -0.231853     9.65413e-07     5.99919e-07     3.98564e-07    -3.98043e-07
                   -1.53734e-05     1.26257e-05     1.10854e-06     3.93472e-07       -0.842097       0.0217169     1.24576e-07     -6.1332e-07
                   -1.12072e-05     9.02068e-06      5.5607e-08     1.93404e-07    -6.34199e-08    -7.66155e-08       -0.840308       0.0236456
     4.256e+07         0.179432       -0.968148      0.00405637       0.0048776     -1.4251e-05     1.23415e-05    -1.11075e-05     9.23516e-06
                     0.00402528      0.00483111        0.948712       -0.237651     9.78251e-07     5.92492e-07     3.93272e-07    -4.02306e-07
                   -1.53465e-05     1.27774e-05     1.10979e-06     3.92306e-07       -0.842048       0.0254924      1.2079e-07    -6.13626e-07
                   -1.11841e-05     9.12792e-06     5.51543e-08     1.94841e-07    -6.30118e-08    -6.76075e-08       -0.840244       0.0274128
     4.258e+07          0.17295       -0.969119      0.00409479      0.00486049    -1.42299e-05     1.24883e-05    -1.10865e-05     9.34021e-06
                     0.00406341      0.00481432         0.94724       -0.243438     9.91051e-07     5.84904e-07     3.87942e-07    -4.06508e-07
                   -1.53183e-05     1.29295e-05     1.11107e-06     3.91033e-07       -0.841984       0.0292666     1.16979e-07    -6.13766e-07
                     -1.116e-05     9.23532e-06     5.47901e-08     1.96321e-07    -6.25004e-08    -5.86078e-08       -0.840165       0.0311785
      4.26e+07         0.166455       -0.970049      0.00413321      0.00484314    -1.42076e-05     1.26356e-05    -1.10646e-05     9.44551e-06
                     0.00410155      0.00479729        0.945735       -0.249213     1.00381e-06     5.77153e-07     3.82572e-07    -4.10647e-07
                   -1.52887e-05     1.30819e-05     1.11238e-06     3.89652e-07       -0.841906       0.0330394     1.13146e-07    -6.13744e-07
                   -1.11349e-05     9.34289e-06     5.45147e-08     1.97843e-07     -6.1885e-08    -4.96193e-08       -0.840071       0.0349426
     4.262e+07         0.159948       -0.970937      0.00417163      0.00482555    -1.41841e-05     1.27833e-05    -1.10417e-05     9.55105e-06
                     0.00413969      0.00478002        0.944195       -0.254978     1.01653e-06      5.6924e-07     3.77166e-07    -4.14724e-07
                   -1.52578e-05     1.32346e-05      1.1137e-06     3.88163e-07       -0.841812       0.0368108     1.09294e-07    -6.13561e-07
                   -1.11089e-05     9.45061e-06     5.43281e-08     1.99404e-07    -6.11652e-08    -4.06444e-08       -0.839963       0.0387052
     4.264e+07         0.153428       -0.971783      0.00421005      0.00480771    -1.41594e-05     1.29315e-05    -1.10179e-05      9.6568e-06
                     0.00417783      0.00476249        0.942622       -0.260731      1.0292e-06     5.61166e-07     3.71722e-07    -4.18735e-07
                   -1.52256e-05     1.33876e-05     1.11506e-06     3.86566e-07       -0.841704       0.0405807     1.05428e-07    -6.13219e-07
                   -1.10818e-05     9.55846e-06     5.42305e-08     2.01002e-07    -6.03406e-08    -3.16857e-08       -0.839839       0.0424661
     4.266e+07         0.146896       -0.972587      0.00424846      0.00478962    -1.41335e-05     1.30801e-05     -1.0993e-05     9.76277e-06
                     0.00421598      0.00474472        0.941016       -0.266473     1.04183e-06      5.5293e-07     3.66242e-07     -4.2268e-07
                    -1.5192e-05     1.35408e-05     1.11643e-06      3.8486e-07        -0.84158       0.0443491      1.0155e-07     -6.1272e-07
                   -1.10538e-05     9.66644e-06      5.4222e-08     2.02636e-07    -5.94109e-08     -2.2746e-08         -0.8397       0.0462255
     4.268e+07         0.140353       -0.973349      0.00428687      0.00477128    -1.41064e-05     1.32291e-05    -1.09672e-05     9.86894e-06
                     0.00425412       0.0047267        0.939376       -0.272203     1.05441e-06     5.44533e-07     3.60727e-07    -4.26558e-07
                    -1.5157e-05     1.36944e-05     1.11782e-06     3.83046e-07       -0.841441        0.048116     9.76653e-08    -6.12067e-07
                   -1.10249e-05     9.77453e-06     5.43028e-08     2.04302e-07    -5.83758e-08    -1.38277e-08       -0.839546       0.0499832
      4.27e+07         0.133797       -0.974069      0.00432527      0.00475269     -1.4078e-05     1.33786e-05    -1.09404e-05     9.97529e-06
                     0.00429226      0.00470844        0.937702       -0.277922     1.06693e-06     5.35975e-07     3.55177e-07    -4.30367e-07
                   -1.51208e-05     1.38481e-05     1.11923e-06     3.81122e-07       -0.841287       0.0518813     9.37755e-08    -6.11262e-07
                   -1.09949e-05     9.88273e-06     5.44728e-08     2.05998e-07    -5.72351e-08    -4.93346e-09       -0.839378       0.0537392
     4.272e+07          0.12723       -0.974746      0.00436368      0.00473386    -1.40485e-05     1.35284e-05    -1.09127e-05     1.00818e-05
                     0.00433041      0.00468992        0.935995        -0.28363      1.0794e-06     5.27256e-07     3.49593e-07    -4.34106e-07
                   -1.50832e-05     1.40021e-05     1.12065e-06      3.7909e-07       -0.841118        0.055645     8.98846e-08    -6.10308e-07
                    -1.0964e-05     9.99102e-06     5.47322e-08     2.07723e-07    -5.59887e-08     3.93419e-09       -0.839194       0.0574934
     4.274e+07         0.120652       -0.975381      0.00440207      0.00471477    -1.40176e-05     1.36786e-05     -1.0884e-05     1.01885e-05
                     0.00436855      0.00467115        0.934255       -0.289326     1.09181e-06     5.18377e-07     3.43977e-07    -4.37774e-07
                   -1.50442e-05     1.41563e-05     1.12209e-06     3.76948e-07       -0.840934       0.0594071     8.59956e-08    -6.09206e-07
                   -1.09322e-05     1.00994e-05     5.50808e-08     2.09474e-07    -5.46365e-08     1.27727e-08       -0.838995        0.061246
     4.276e+07         0.114063       -0.975973      0.00444047      0.00469542    -1.39856e-05     1.38292e-05    -1.08543e-05     1.02953e-05
                     0.00440669      0.00465213        0.932481       -0.295011     1.10417e-06     5.09339e-07     3.38329e-07     -4.4137e-07
                    -1.5004e-05     1.43107e-05     1.12355e-06     3.74696e-07       -0.840734       0.0631676     8.21117e-08    -6.07958e-07
                   -1.08994e-05     1.02078e-05     5.55186e-08     2.11249e-07    -5.31784e-08     2.15795e-08        -0.83878       0.0649967
     4.278e+07         0.107464       -0.976523      0.00447885      0.00467583    -1.39523e-05     1.39801e-05    -1.08236e-05     1.04023e-05
                     0.00444483      0.00463286        0.930674       -0.300684     1.11646e-06     5.00141e-07     3.32649e-07    -4.44893e-07
                   -1.49624e-05     1.44653e-05     1.12501e-06     3.72335e-07       -0.840519       0.0669263     7.82359e-08    -6.06568e-07
                   -1.08656e-05     1.03163e-05     5.60456e-08     2.13047e-07    -5.16146e-08     3.03521e-08       -0.838551       0.0687456
      4.28e+07         0.100853        -0.97703      0.00451724      0.00465598    -1.39178e-05     1.41314e-05     -1.0792e-05     1.05094e-05
                     0.00448297      0.00461333        0.928834       -0.306346     1.12868e-06     4.90785e-07      3.2694e-07    -4.48341e-07
                   -1.49194e-05     1.46201e-05     1.12648e-06     3.69865e-07       -0.840289       0.0706833     7.43712e-08    -6.05037e-07
                   -1.08309e-05     1.04249e-05     5.66617e-08     2.14864e-07     -4.9945e-08     3.90879e-08       -0.838306       0.0724926
     4.282e+07        0.0942331       -0.977493      0.00455561      0.00463587    -1.38821e-05     1.42829e-05    -1.07594e-05     1.06166e-05
                     0.00452111      0.00459355        0.926961       -0.311995     1.14084e-06      4.8127e-07     3.21201e-07    -4.51713e-07
                   -1.48752e-05     1.47751e-05     1.12796e-06     3.67284e-07       -0.840044       0.0744385     7.05206e-08    -6.03369e-07
                   -1.07952e-05     1.05335e-05     5.73666e-08       2.167e-07    -4.81699e-08     4.77846e-08       -0.838046       0.0762378
     4.284e+07        0.0876027       -0.977914      0.00459399      0.00461551    -1.38451e-05     1.44348e-05    -1.07259e-05     1.07239e-05
                     0.00455925      0.00457351        0.925054       -0.317633     1.15293e-06     4.71598e-07     3.15435e-07    -4.55008e-07
                   -1.48296e-05     1.49301e-05     1.12945e-06     3.64594e-07       -0.839783       0.0781918     6.66869e-08    -6.01564e-07
                   -1.07586e-05     1.06421e-05     5.81604e-08     2.18551e-07    -4.62895e-08     5.64395e-08       -0.837771       0.0799809
     4.286e+07        0.0809627       -0.978292      0.00463235      0.00459489    -1.38068e-05     1.45871e-05    -1.06914e-05     1.08314e-05
                     0.00459738      0.00455321        0.923114       -0.323259     1.16494e-06     4.61768e-07     3.09642e-07    -4.58225e-07
                   -1.47827e-05     1.50854e-05     1.13094e-06     3.61794e-07       -0.839507       0.0819434     6.28729e-08    -5.99626e-07
                    -1.0721e-05     1.07508e-05     5.90427e-08     2.20416e-07     -4.4304e-08     6.50503e-08        -0.83748       0.0837222
     4.288e+07        0.0743131       -0.978626      0.00467071        0.004574    -1.37674e-05     1.47395e-05    -1.06559e-05     1.09389e-05
                     0.00463551      0.00453266        0.921142       -0.328874     1.17688e-06     4.51782e-07     3.03823e-07    -4.61364e-07
                   -1.47344e-05     1.52407e-05     1.13243e-06     3.58884e-07       -0.839216        0.085693     5.90812e-08    -5.97558e-07
                   -1.06825e-05     1.08595e-05     6.00134e-08     2.22293e-07    -4.22137e-08     7.36145e-08       -0.837174       0.0874613
      4.29e+07        0.0676543       -0.978917      0.00470906      0.00455286    -1.37266e-05     1.48923e-05    -1.06195e-05     1.10464e-05
                     0.00467364      0.00451184        0.919136       -0.334476     1.18875e-06     4.41641e-07     2.97979e-07    -4.64422e-07
                   -1.46849e-05     1.53962e-05     1.13392e-06     3.55865e-07       -0.838909       0.0894406     5.53145e-08    -5.95361e-07
                    -1.0643e-05     1.09681e-05     6.10722e-08      2.2418e-07    -4.00191e-08     8.21296e-08       -0.836853       0.0911984
     4.292e+07        0.0609865       -0.979165      0.00474741      0.00453146    -1.36846e-05     1.50453e-05    -1.05821e-05     1.11541e-05
                     0.00471177      0.00449076        0.917097       -0.340066     1.20053e-06     4.31344e-07     2.92111e-07      -4.674e-07
                    -1.4634e-05     1.55518e-05     1.13541e-06     3.52735e-07       -0.838586       0.0931863     5.15754e-08    -5.93038e-07
                   -1.06027e-05     1.10768e-05     6.22188e-08     2.26074e-07    -3.77206e-08     9.05934e-08       -0.836516       0.0949335
     4.294e+07        0.0543099       -0.979368      0.00478574      0.00450979    -1.36414e-05     1.51986e-05    -1.05437e-05     1.12617e-05
                     0.00474988      0.00446941        0.915025       -0.345644     1.21223e-06     4.20893e-07     2.86222e-07    -4.70296e-07
                   -1.45818e-05     1.57074e-05      1.1369e-06     3.49496e-07       -0.838248         0.09693     4.78664e-08    -5.90591e-07
                   -1.05613e-05     1.11855e-05     6.34529e-08     2.27975e-07    -3.53187e-08     9.90033e-08       -0.836164       0.0986663
     4.296e+07        0.0476248       -0.979528      0.00482407      0.00448786    -1.35969e-05     1.53521e-05    -1.05045e-05     1.13695e-05
                       0.004788      0.00444781         0.91292        -0.35121     1.22385e-06     4.10288e-07     2.80311e-07    -4.73109e-07
                   -1.45283e-05     1.58631e-05     1.13839e-06     3.46147e-07       -0.837895        0.100672       4.419e-08    -5.88024e-07
                   -1.05191e-05     1.12941e-05     6.47742e-08     2.29879e-07    -3.28139e-08     1.07357e-07       -0.835797        0.102397
     4.298e+07        0.0409315       -0.979645      0.00486239      0.00446566    -1.35512e-05     1.55059e-05    -1.04642e-05     1.14772e-05
                     0.00482611      0.00442593        0.910783       -0.356764     1.23538e-06      3.9953e-07      2.7438e-07    -4.75838e-07
                   -1.44735e-05     1.60189e-05     1.13987e-06     3.42689e-07       -0.837526        0.104411     4.05484e-08    -5.85338e-07
                   -1.04759e-05     1.14027e-05     6.61823e-08     2.31785e-07    -3.02069e-08     1.15652e-07       -0.835414        0.106125
       4.3e+07        0.0342301       -0.979717       0.0049007       0.0044432    -1.35042e-05     1.56598e-05     -1.0423e-05      1.1585e-05
                     0.00486421      0.00440379        0.908612       -0.362305     1.24682e-06      3.8862e-07      2.6843e-07    -4.78482e-07
                   -1.44173e-05     1.61747e-05     1.14134e-06     3.39121e-07       -0.837141        0.108148     3.69441e-08    -5.82536e-07
                   -1.04318e-05     1.15113e-05     6.76768e-08     2.33691e-07    -2.74982e-08     1.23887e-07       -0.835015        0.109852
     4.302e+07         0.027521       -0.979745        0.004939      0.00442047    -1.34559e-05      1.5814e-05    -1.03809e-05     1.16928e-05
                     0.00490231      0.00438138        0.906409       -0.367833     1.25817e-06     3.77559e-07     2.62463e-07    -4.81041e-07
                   -1.43599e-05     1.63306e-05      1.1428e-06     3.35444e-07       -0.836741        0.111883     3.33792e-08     -5.7962e-07
                   -1.03868e-05     1.16198e-05     6.92574e-08     2.35595e-07    -2.46887e-08     1.32058e-07       -0.834601        0.113575
     4.304e+07        0.0208043       -0.979729      0.00497729      0.00439747    -1.34064e-05     1.59684e-05    -1.03379e-05     1.18005e-05
                      0.0049404       0.0043587        0.904172        -0.37335     1.26943e-06     3.66348e-07     2.56479e-07    -4.83513e-07
                   -1.43012e-05     1.64865e-05     1.14424e-06     3.31659e-07       -0.836325        0.115616      2.9856e-08    -5.76594e-07
                   -1.03409e-05     1.17282e-05     7.09235e-08     2.37495e-07    -2.17789e-08     1.40164e-07       -0.834171        0.117297
     4.306e+07        0.0140804       -0.979668      0.00501557      0.00437419    -1.33556e-05     1.61229e-05    -1.02939e-05     1.19083e-05
                     0.00497848      0.00433574        0.901903       -0.378853     1.28059e-06     3.54987e-07     2.50481e-07    -4.85898e-07
                   -1.42411e-05     1.66425e-05     1.14568e-06     3.27764e-07       -0.835894        0.119347     2.63766e-08    -5.73459e-07
                    -1.0294e-05     1.18366e-05     7.26747e-08     2.39389e-07    -1.87699e-08     1.48202e-07       -0.833726        0.121016
     4.308e+07       0.00734947       -0.979563      0.00505383      0.00435065    -1.33036e-05     1.62776e-05    -1.02489e-05     1.20161e-05
                     0.00501655      0.00431252        0.899601       -0.384344     1.29165e-06     3.43478e-07     2.44469e-07    -4.88195e-07
                   -1.41798e-05     1.67984e-05      1.1471e-06     3.23761e-07       -0.835447        0.123075     2.29429e-08    -5.70218e-07
                   -1.02463e-05      1.1945e-05     7.45105e-08     2.41276e-07    -1.56623e-08     1.56171e-07       -0.833265        0.124732
      4.31e+07      0.000611778       -0.979414      0.00509209      0.00432683    -1.32503e-05     1.64324e-05     -1.0203e-05     1.21238e-05
                     0.00505461      0.00428902        0.897266       -0.389822     1.30261e-06     3.31822e-07     2.38445e-07    -4.90403e-07
                   -1.41172e-05     1.69543e-05      1.1485e-06      3.1965e-07       -0.834984        0.126801     1.95571e-08    -5.66874e-07
                   -1.01977e-05     1.20532e-05     7.64304e-08     2.43153e-07    -1.24572e-08     1.64067e-07       -0.832789        0.128446
     4.312e+07      -0.00613242        -0.97922      0.00513033      0.00430273    -1.31957e-05     1.65874e-05    -1.01562e-05     1.22315e-05
                     0.00509266      0.00426524        0.894898       -0.395287     1.31347e-06     3.20019e-07      2.3241e-07    -4.92522e-07
                   -1.40532e-05     1.71102e-05     1.14989e-06     3.15431e-07       -0.834505        0.130524      1.6221e-08     -5.6343e-07
                   -1.01481e-05     1.21614e-05     7.84338e-08     2.45019e-07     -9.1554e-09      1.7189e-07       -0.832297        0.132158
     4.314e+07       -0.0128829       -0.978981      0.00516855      0.00427836    -1.31399e-05     1.67426e-05    -1.01085e-05     1.23392e-05
                     0.00513071      0.00424118        0.892498        -0.40074     1.32422e-06     3.08071e-07     2.26366e-07     -4.9455e-07
                    -1.3988e-05     1.72661e-05     1.15125e-06     3.11104e-07       -0.834011        0.134245     1.29364e-08    -5.59887e-07
                   -1.00976e-05     1.22694e-05     8.05202e-08     2.46872e-07    -5.75801e-09     1.79636e-07       -0.831789        0.135867
     4.316e+07       -0.0196393       -0.978697      0.00520676      0.00425371    -1.30828e-05     1.68978e-05    -1.00599e-05     1.24467e-05
                     0.00516874      0.00421685        0.890065       -0.406179     1.33487e-06     2.95978e-07     2.20313e-07    -4.96488e-07
                   -1.39215e-05      1.7422e-05     1.15259e-06      3.0667e-07       -0.833501        0.137963     9.70529e-09    -5.56248e-07
                   -1.00463e-05     1.23774e-05     8.26889e-08      2.4871e-07    -2.26606e-09     1.87303e-07       -0.831265        0.139573
     4.318e+07       -0.0264015       -0.978368      0.00524496      0.00422878    -1.30244e-05     1.70532e-05    -1.00103e-05     1.25543e-05
                     0.00520675      0.00419223        0.887599       -0.411604      1.3454e-06     2.83743e-07     2.14254e-07    -4.98334e-07
                   -1.38537e-05     1.75778e-05     1.15391e-06     3.02129e-07       -0.832975        0.141678     6.52926e-09    -5.52517e-07
                   -9.99407e-06     1.24852e-05     8.49394e-08     2.50531e-07     1.31938e-09     1.94891e-07       -0.830726        0.143276
      4.32e+07       -0.0331691       -0.977993      0.00528314      0.00420357    -1.29648e-05     1.72087e-05    -9.95981e-06     1.26617e-05
                     0.00524476      0.00416733          0.8851       -0.417017     1.35583e-06     2.71365e-07     2.08191e-07    -5.00088e-07
                   -1.37847e-05     1.77335e-05      1.1552e-06     2.97482e-07       -0.832433        0.145391     3.41002e-09    -5.48694e-07
                   -9.94094e-06     1.25929e-05     8.72709e-08     2.52334e-07     4.99714e-09     2.02395e-07       -0.830171        0.146977
     4.322e+07        -0.039942       -0.977574       0.0053213      0.00417807    -1.29039e-05     1.73642e-05     -9.9084e-06     1.27691e-05
                     0.00528274      0.00414214        0.882568       -0.422416     1.36613e-06     2.58847e-07     2.02123e-07    -5.01749e-07
                   -1.37143e-05     1.78892e-05     1.15646e-06     2.92729e-07       -0.831876        0.149101     3.49196e-10    -5.44784e-07
                   -9.88694e-06     1.27006e-05     8.96829e-08     2.54116e-07     8.76605e-09     2.09815e-07         -0.8296        0.150675
     4.324e+07       -0.0467198       -0.977109      0.00535944      0.00415229    -1.28418e-05     1.75199e-05    -9.85608e-06     1.28764e-05
                     0.00532072      0.00411667        0.880004       -0.427802     1.37633e-06     2.46189e-07     1.96053e-07    -5.03316e-07
                   -1.36427e-05     1.80448e-05     1.15769e-06      2.8787e-07       -0.831302        0.152809    -2.65167e-09    -5.40789e-07
                   -9.83205e-06      1.2808e-05     9.21745e-08     2.55877e-07     1.26249e-08     2.17149e-07       -0.829014         0.15437
     4.326e+07       -0.0535022       -0.976598      0.00539757      0.00412622    -1.27784e-05     1.76756e-05    -9.80286e-06     1.29836e-05
                     0.00535868      0.00409092        0.877407       -0.433174      1.3864e-06     2.33392e-07     1.89983e-07     -5.0479e-07
                   -1.35698e-05     1.82003e-05      1.1589e-06     2.82906e-07       -0.830713        0.156513    -5.59108e-09    -5.36711e-07
                   -9.77629e-06     1.29154e-05     9.47452e-08     2.57614e-07     1.65723e-08     2.24394e-07       -0.828412        0.158062
     4.328e+07       -0.0602891       -0.976042      0.00543567      0.00409987    -1.27137e-05     1.78313e-05    -9.74873e-06     1.30907e-05
                     0.00539662      0.00406487        0.874778       -0.438532     1.39635e-06     2.20458e-07     1.83914e-07     -5.0617e-07
                   -1.34957e-05     1.83558e-05     1.16007e-06     2.77838e-07       -0.830108        0.160215     -8.4676e-09    -5.32552e-07
                   -9.71966e-06     1.30226e-05     9.73941e-08     2.59326e-07     2.06071e-08     2.31549e-07       -0.827794        0.161751
      4.33e+07       -0.0670802       -0.975439      0.00547375      0.00407322    -1.26477e-05     1.79871e-05     -9.6937e-06     1.31977e-05
                     0.00543454      0.00403853        0.872115       -0.443876     1.40618e-06     2.07389e-07     1.77847e-07    -5.07455e-07
                   -1.34203e-05     1.85111e-05      1.1612e-06     2.72666e-07       -0.829487        0.163914    -1.12799e-08    -5.28316e-07
                   -9.66216e-06     1.31296e-05     1.00121e-07      2.6101e-07     2.47278e-08     2.38612e-07        -0.82716        0.165437
     4.332e+07       -0.0738751       -0.974791      0.00551182      0.00404629    -1.25805e-05      1.8143e-05    -9.63777e-06     1.33046e-05
                     0.00547244       0.0040119         0.86942       -0.449206     1.41588e-06     1.94185e-07     1.71784e-07    -5.08645e-07
                   -1.33436e-05     1.86663e-05      1.1623e-06      2.6739e-07       -0.828849         0.16761    -1.40265e-08    -5.24005e-07
                    -9.6038e-06     1.32365e-05     1.02924e-07     2.62667e-07     2.89331e-08      2.4558e-07        -0.82651        0.169119
     4.334e+07       -0.0806736       -0.974097      0.00554985      0.00401906     -1.2512e-05     1.82989e-05    -9.58094e-06     1.34113e-05
                     0.00551032      0.00398497        0.866692       -0.454522     1.42546e-06     1.80848e-07     1.65727e-07    -5.09739e-07
                   -1.32657e-05     1.88214e-05     1.16336e-06     2.62011e-07       -0.828196        0.171302    -1.67064e-08    -5.19622e-07
                   -9.54457e-06     1.33433e-05     1.05803e-07     2.64293e-07     3.32216e-08     2.52453e-07       -0.825844        0.172799
     4.336e+07       -0.0874755       -0.973356      0.00558787      0.00399153    -1.24423e-05     1.84548e-05    -9.52322e-06      1.3518e-05
                     0.00554818      0.00395775        0.863932       -0.459824      1.4349e-06     1.67379e-07     1.59677e-07    -5.10737e-07
                   -1.31865e-05     1.89764e-05     1.16438e-06     2.56531e-07       -0.827527        0.174992    -1.93182e-08    -5.15168e-07
                   -9.48449e-06     1.34498e-05     1.08757e-07     2.65887e-07     3.75916e-08     2.59228e-07       -0.825162        0.176476
     4.338e+07       -0.0942804        -0.97257      0.00562586      0.00396371    -1.23712e-05     1.86107e-05    -9.46462e-06     1.36244e-05
                     0.00558602      0.00393023        0.861139       -0.465112     1.44422e-06      1.5378e-07     1.53636e-07    -5.11638e-07
                   -1.31061e-05     1.91312e-05     1.16536e-06     2.50949e-07       -0.826842        0.178678    -2.18608e-08    -5.10648e-07
                   -9.42356e-06     1.35562e-05     1.11785e-07     2.67448e-07     4.20418e-08     2.65903e-07       -0.824465        0.180149
      4.34e+07        -0.101088       -0.971736      0.00566382      0.00393559     -1.2299e-05     1.87666e-05    -9.40513e-06     1.37308e-05
                     0.00562383       0.0039024        0.858313       -0.470385      1.4534e-06     1.40053e-07     1.47606e-07    -5.12444e-07
                   -1.30244e-05     1.92859e-05     1.16629e-06     2.45266e-07       -0.826141        0.182361    -2.43332e-08    -5.06062e-07
                   -9.36177e-06     1.36624e-05     1.14886e-07     2.68973e-07     4.65705e-08     2.72477e-07       -0.823751        0.183818
     4.342e+07        -0.107898       -0.970857      0.00570176      0.00390717    -1.22254e-05     1.89225e-05    -9.34475e-06     1.38369e-05
                     0.00566162      0.00387428        0.855455       -0.475643     1.46244e-06     1.26197e-07     1.41587e-07    -5.13152e-07
                   -1.29415e-05     1.94404e-05     1.16718e-06     2.39483e-07       -0.825424        0.186041    -2.67343e-08    -5.01414e-07
                   -9.29914e-06     1.37685e-05      1.1806e-07     2.70463e-07     5.11762e-08     2.78949e-07       -0.823022        0.187485
     4.344e+07        -0.114711        -0.96993      0.00573966      0.00387845    -1.21506e-05     1.90784e-05     -9.2835e-06      1.3943e-05
                     0.00569938      0.00384585        0.852563       -0.480887     1.47135e-06     1.12216e-07     1.35582e-07    -5.13763e-07
                   -1.28573e-05     1.95948e-05     1.16802e-06       2.336e-07       -0.824691        0.189717    -2.90632e-08    -4.96707e-07
                   -9.23567e-06     1.38743e-05     1.21306e-07     2.71914e-07     5.58572e-08     2.85316e-07       -0.822276        0.191148
     4.346e+07        -0.121525       -0.968957      0.00577754      0.00384943    -1.20745e-05     1.92343e-05    -9.22138e-06     1.40488e-05
                     0.00573711      0.00381712         0.84964       -0.486115     1.48012e-06     9.81108e-08     1.29593e-07    -5.14277e-07
                   -1.27719e-05      1.9749e-05     1.16882e-06     2.27619e-07       -0.823941         0.19339    -3.13188e-08    -4.91942e-07
                   -9.17136e-06       1.398e-05     1.24622e-07     2.73325e-07     6.06119e-08     2.91577e-07       -0.821515        0.194807
     4.348e+07        -0.128341       -0.967936      0.00581538      0.00382009    -1.19971e-05     1.93901e-05    -9.15838e-06     1.41545e-05
                     0.00577481      0.00378808        0.846683       -0.491329     1.48874e-06     8.38826e-08      1.2362e-07    -5.14693e-07
                   -1.26853e-05      1.9903e-05     1.16956e-06      2.2154e-07       -0.823176         0.19706    -3.35005e-08    -4.87123e-07
                   -9.10621e-06     1.40854e-05     1.28007e-07     2.74696e-07     6.54386e-08     2.97731e-07       -0.820737        0.198463
      4.35e+07        -0.135158       -0.966869       0.0058532      0.00379046    -1.19185e-05     1.95459e-05    -9.09451e-06       1.426e-05
                     0.00581248      0.00375873        0.843694       -0.496527     1.49722e-06     6.95333e-08     1.17667e-07    -5.15012e-07
                   -1.25974e-05     2.00569e-05     1.17025e-06     2.15364e-07       -0.822394        0.200725    -3.56073e-08    -4.82251e-07
                   -9.04023e-06     1.41907e-05     1.31461e-07     2.76024e-07     7.03355e-08     3.03776e-07       -0.819944        0.202115
     4.352e+07        -0.141977       -0.965754      0.00589097      0.00376051    -1.18386e-05     1.97016e-05    -9.02978e-06     1.43653e-05
                     0.00585013      0.00372907        0.840672        -0.50171     1.50556e-06     5.50645e-08     1.11734e-07    -5.15233e-07
                   -1.25083e-05     2.02105e-05     1.17089e-06     2.09092e-07       -0.821597        0.204388    -3.76385e-08     -4.7733e-07
                   -8.97343e-06     1.42957e-05     1.34983e-07     2.77309e-07     7.53008e-08      3.0971e-07       -0.819134        0.205763
     4.354e+07        -0.148796       -0.964592      0.00592872      0.00373025    -1.17575e-05     1.98572e-05    -8.96419e-06     1.44704e-05
                     0.00588773       0.0036991        0.837618       -0.506878     1.51375e-06     4.04778e-08     1.05823e-07    -5.15356e-07
                    -1.2418e-05      2.0364e-05     1.17147e-06     2.02725e-07       -0.820783        0.208046    -3.95935e-08    -4.72362e-07
                    -8.9058e-06     1.44005e-05     1.38571e-07     2.78547e-07     8.03328e-08     3.15532e-07       -0.818309        0.209408
     4.356e+07        -0.155615       -0.963383      0.00596642      0.00369968    -1.16751e-05     2.00128e-05    -8.89775e-06     1.45753e-05
                      0.0059253      0.00366881         0.83453        -0.51203     1.52179e-06      2.5775e-08     9.99355e-08    -5.15382e-07
                   -1.23264e-05     2.05172e-05       1.172e-06     1.96264e-07       -0.819953        0.211701    -4.14715e-08    -4.67349e-07
                   -8.83735e-06     1.45051e-05     1.42225e-07      2.7974e-07     8.54296e-08      3.2124e-07       -0.817467        0.213049
     4.358e+07        -0.162435       -0.962126      0.00600409       0.0036688    -1.15914e-05     2.01683e-05    -8.83045e-06       1.468e-05
                     0.00596284      0.00363821        0.831411       -0.517166     1.52968e-06     1.09577e-08     9.40739e-08     -5.1531e-07
                   -1.22337e-05     2.06702e-05     1.17247e-06     1.89709e-07       -0.819107        0.215352     -4.3272e-08    -4.62294e-07
                   -8.76808e-06     1.46095e-05     1.45944e-07     2.80884e-07     9.05894e-08     3.26834e-07       -0.816609        0.216686
      4.36e+07        -0.169255       -0.960821      0.00604172      0.00363759    -1.15065e-05     2.03237e-05    -8.76229e-06     1.47845e-05
                     0.00600033      0.00360729        0.828258       -0.522286     1.53741e-06    -3.97231e-09     8.82395e-08     -5.1514e-07
                   -1.21397e-05     2.08231e-05     1.17287e-06     1.83061e-07       -0.818244        0.218999    -4.49945e-08      -4.572e-07
                     -8.698e-06     1.47136e-05     1.49725e-07     2.81979e-07     9.58102e-08     3.32313e-07       -0.815736        0.220318
     4.362e+07        -0.176074       -0.959468      0.00607931      0.00360607    -1.14203e-05     2.04791e-05    -8.69329e-06     1.48888e-05
                     0.00603779      0.00357604        0.825073        -0.52739     1.54499e-06    -1.90132e-08     8.24342e-08    -5.14872e-07
                   -1.20445e-05     2.09756e-05     1.17322e-06     1.76322e-07       -0.817366        0.222642    -4.66384e-08    -4.52068e-07
                   -8.62711e-06     1.48176e-05      1.5357e-07     2.83022e-07      1.0109e-07     3.37673e-07       -0.814846        0.223947
     4.364e+07        -0.182892       -0.958067      0.00611685      0.00357423    -1.13328e-05     2.06343e-05    -8.62345e-06     1.49929e-05
                      0.0060752      0.00354448        0.821855       -0.532478     1.55241e-06    -3.41633e-08     7.66596e-08    -5.14507e-07
                   -1.19481e-05      2.1128e-05      1.1735e-06     1.69493e-07       -0.816471        0.226281    -4.82034e-08    -4.46901e-07
                   -8.55541e-06     1.49212e-05     1.57475e-07     2.84014e-07     1.06427e-07     3.42916e-07        -0.81394        0.227572
     4.366e+07         -0.18971       -0.956619      0.00615435      0.00354207    -1.12441e-05     2.07894e-05    -8.55277e-06     1.50968e-05
                     0.00611258      0.00351259        0.818605       -0.537549     1.55967e-06    -4.94207e-08     7.09176e-08    -5.14044e-07
                   -1.18505e-05     2.12801e-05     1.17371e-06     1.62574e-07        -0.81556        0.229916     -4.9689e-08    -4.41702e-07
                   -8.48291e-06     1.50247e-05      1.6144e-07     2.84953e-07      1.1182e-07     3.48038e-07       -0.813017        0.231192
     4.368e+07        -0.196526       -0.955122       0.0061918      0.00350958    -1.11541e-05     2.09443e-05    -8.48125e-06     1.52004e-05
                      0.0061499      0.00348037        0.815322       -0.542603     1.56678e-06    -6.47835e-08     6.52098e-08    -5.13484e-07
                   -1.17517e-05      2.1432e-05     1.17386e-06     1.55568e-07       -0.814632        0.233547     -5.1095e-08    -4.36473e-07
                   -8.40961e-06     1.51279e-05     1.65465e-07     2.85837e-07     1.17265e-07      3.5304e-07       -0.812079        0.234808
      4.37e+07         -0.20334       -0.953576       0.0062292      0.00347677    -1.10629e-05     2.10992e-05     -8.4089e-06     1.53038e-05
                     0.00618718      0.00344782        0.812007       -0.547641     1.57372e-06    -8.02499e-08      5.9538e-08    -5.12828e-07
                   -1.16517e-05     2.15836e-05     1.17394e-06     1.48473e-07       -0.813689        0.237173    -5.24209e-08    -4.31217e-07
                   -8.33551e-06     1.52308e-05     1.69547e-07     2.86665e-07     1.22762e-07      3.5792e-07       -0.811125         0.23842
     4.372e+07        -0.210153       -0.951982      0.00626656      0.00344363    -1.09704e-05     2.12539e-05    -8.33571e-06     1.54069e-05
                     0.00622441      0.00341495        0.808658       -0.552662     1.58049e-06    -9.58179e-08     5.39039e-08    -5.12074e-07
                   -1.15505e-05     2.17349e-05     1.17395e-06     1.41293e-07       -0.812729        0.240795    -5.36667e-08    -4.25936e-07
                   -8.26062e-06     1.53335e-05     1.73685e-07     2.87436e-07     1.28308e-07     3.62677e-07       -0.810154        0.242028
     4.374e+07        -0.216963        -0.95034      0.00630386      0.00341015    -1.08766e-05     2.14085e-05    -8.26171e-06     1.55098e-05
                     0.00626159      0.00338174        0.805278       -0.557665      1.5871e-06    -1.11486e-07     4.83093e-08    -5.11224e-07
                   -1.14481e-05      2.1886e-05     1.17389e-06     1.34028e-07       -0.811753        0.244413    -5.48321e-08    -4.20631e-07
                   -8.18494e-06      1.5436e-05     1.77879e-07     2.88149e-07     1.33901e-07      3.6731e-07       -0.809167        0.245631
     4.376e+07         -0.22377       -0.948649      0.00634111      0.00337635    -1.07816e-05     2.15629e-05    -8.18687e-06     1.56125e-05
                     0.00629872       0.0033482        0.801864       -0.562652     1.59355e-06    -1.27251e-07     4.27561e-08    -5.10278e-07
                   -1.13445e-05     2.20369e-05     1.17375e-06     1.26679e-07       -0.810761        0.248026    -5.59169e-08    -4.15307e-07
                   -8.10847e-06     1.55382e-05     1.82128e-07     2.88803e-07     1.39539e-07     3.71819e-07       -0.808164        0.249229
     4.378e+07        -0.230574       -0.946909       0.0063783      0.00334221    -1.06853e-05     2.17171e-05    -8.11122e-06     1.57149e-05
                     0.00633579      0.00331432        0.798418       -0.567621     1.59982e-06    -1.43113e-07     3.72458e-08    -5.09236e-07
                   -1.12397e-05     2.21874e-05     1.17354e-06     1.19247e-07       -0.809752        0.251635    -5.69212e-08    -4.09964e-07
                   -8.03121e-06     1.56401e-05     1.86429e-07     2.89396e-07      1.4522e-07     3.76201e-07       -0.807145        0.252823
      4.38e+07        -0.237376        -0.94512      0.00641544      0.00330774    -1.05877e-05     2.18712e-05    -8.03475e-06      1.5817e-05
                      0.0063728       0.0032801         0.79494       -0.572572     1.60593e-06    -1.59068e-07     3.17804e-08    -5.08099e-07
                   -1.11338e-05     2.23377e-05     1.17325e-06     1.11735e-07       -0.808727        0.255239    -5.78448e-08    -4.04606e-07
                   -7.95318e-06     1.57417e-05     1.90782e-07     2.89927e-07     1.50941e-07     3.80457e-07        -0.80611        0.256412
     4.382e+07        -0.244173       -0.943282      0.00645252      0.00327293    -1.04889e-05     2.20251e-05    -7.95747e-06     1.59189e-05
                     0.00640976      0.00324555        0.791429       -0.577505     1.61186e-06    -1.75114e-07     2.63615e-08    -5.06867e-07
                   -1.10266e-05     2.24877e-05     1.17289e-06     1.04142e-07       -0.807686        0.258838    -5.86878e-08    -3.99234e-07
                   -7.87436e-06     1.58431e-05     1.95185e-07     2.90396e-07     1.56701e-07     3.84585e-07       -0.805058        0.259996
     4.384e+07        -0.250967       -0.941395      0.00648953      0.00323777    -1.03889e-05     2.21788e-05    -7.87937e-06     1.60205e-05
                     0.00644666      0.00321065        0.787885        -0.58242     1.61762e-06    -1.91251e-07     2.09909e-08    -5.05541e-07
                   -1.09183e-05     2.26374e-05     1.17244e-06     9.64703e-08       -0.806628        0.262433    -5.94501e-08     -3.9385e-07
                   -7.79477e-06     1.59443e-05     1.99638e-07     2.90801e-07     1.62497e-07     3.88585e-07        -0.80399        0.263575
     4.386e+07        -0.257756       -0.939458      0.00652648      0.00320228    -1.02875e-05     2.23324e-05    -7.80047e-06     1.61218e-05
                     0.00648349      0.00317541        0.784309       -0.587317      1.6232e-06    -2.07475e-07     1.56704e-08     -5.0412e-07
                   -1.08088e-05     2.27868e-05     1.17192e-06     8.87213e-08       -0.805554        0.266023     -6.0132e-08    -3.88458e-07
                   -7.71441e-06     1.60451e-05     2.04138e-07     2.91141e-07     1.68328e-07     3.92457e-07       -0.802906         0.26715
     4.388e+07         -0.26454       -0.937472      0.00656337      0.00316644     -1.0185e-05     2.24857e-05    -7.72076e-06     1.62229e-05
                     0.00652026      0.00313982          0.7807       -0.592195     1.62861e-06    -2.23785e-07     1.04017e-08    -5.02607e-07
                   -1.06981e-05     2.29359e-05     1.17131e-06     8.08962e-08       -0.804464        0.269607    -6.07335e-08     -3.8306e-07
                   -7.63328e-06     1.61457e-05     2.08685e-07     2.91415e-07      1.7419e-07     3.96198e-07       -0.801806        0.270719
      4.39e+07         -0.27132       -0.935437      0.00660019      0.00313026    -1.00811e-05     2.26388e-05    -7.64026e-06     1.63237e-05
                     0.00655696      0.00310388        0.777059       -0.597055     1.63383e-06    -2.40177e-07     5.18662e-09       -5.01e-07
                   -1.05863e-05     2.30847e-05     1.17062e-06     7.29963e-08       -0.803357        0.273187    -6.12549e-08    -3.77656e-07
                   -7.55138e-06     1.62459e-05     2.13277e-07     2.91622e-07     1.80082e-07     3.99809e-07       -0.800689        0.274284
     4.392e+07        -0.278094       -0.933352      0.00663694      0.00309373    -9.97604e-06     2.27918e-05    -7.55895e-06     1.64242e-05
                     0.00659359      0.00306759        0.773385       -0.601896     1.63888e-06    -2.56651e-07     2.68768e-11    -4.99302e-07
                   -1.04733e-05     2.32332e-05     1.16985e-06     6.50231e-08       -0.802234        0.276762    -6.16963e-08    -3.72251e-07
                   -7.46872e-06      1.6346e-05     2.17913e-07     2.91762e-07     1.86001e-07      4.0329e-07       -0.799557        0.277843
     4.394e+07        -0.284863       -0.931217      0.00667361      0.00305685     -9.8697e-06     2.29445e-05    -7.47685e-06     1.65244e-05
                     0.00663014      0.00303095        0.769679       -0.606718     1.64375e-06    -2.73204e-07    -5.07577e-09    -4.97512e-07
                   -1.03591e-05     2.33813e-05     1.16899e-06      5.6978e-08       -0.801095        0.280331    -6.20581e-08    -3.66845e-07
                   -7.38529e-06     1.64457e-05     2.22592e-07     2.91833e-07     1.91946e-07     4.06639e-07       -0.798408        0.281397
     4.396e+07        -0.291625       -0.929032      0.00671021      0.00301961    -9.76209e-06     2.30969e-05    -7.39396e-06     1.66243e-05
                     0.00666663      0.00299396        0.765941       -0.611521     1.64843e-06    -2.89834e-07    -1.01196e-08    -4.95631e-07
                   -1.02437e-05     2.35292e-05     1.16804e-06     4.88623e-08        -0.79994        0.283896    -6.23405e-08    -3.61441e-07
                   -7.30111e-06     1.65451e-05     2.27312e-07     2.91834e-07     1.97914e-07     4.09856e-07       -0.797243        0.284946
     4.398e+07        -0.298382       -0.926797      0.00674674      0.00298203    -9.65323e-06     2.32492e-05    -7.31027e-06     1.67239e-05
                     0.00670303      0.00295661         0.76217       -0.616304     1.65293e-06    -3.06539e-07    -1.51028e-08     -4.9366e-07
                   -1.01272e-05     2.36767e-05       1.167e-06     4.06777e-08       -0.798768        0.287455    -6.25439e-08    -3.56042e-07
                   -7.21616e-06     1.66442e-05     2.32072e-07     2.91765e-07     2.03902e-07     4.12941e-07       -0.796061        0.288489
       4.4e+07        -0.305131       -0.924512      0.00678318      0.00294408    -9.54312e-06     2.34012e-05     -7.2258e-06     1.68233e-05
                     0.00673936       0.0029189        0.758366       -0.621067     1.65725e-06    -3.23315e-07    -2.00238e-08      -4.916e-07
                   -1.00095e-05     2.38239e-05     1.16587e-06     3.24255e-08       -0.797579        0.291008    -6.26688e-08    -3.50648e-07
                   -7.13046e-06     1.67431e-05     2.36871e-07     2.91624e-07     2.09908e-07     4.15893e-07       -0.794864        0.292027
     4.402e+07        -0.311873       -0.922177      0.00681955      0.00290578    -9.43174e-06      2.3553e-05    -7.14055e-06     1.69223e-05
                     0.00677561      0.00288084        0.754531       -0.625811     1.66138e-06    -3.40162e-07    -2.48807e-08    -4.89452e-07
                   -9.89067e-06     2.39708e-05     1.16465e-06     2.41073e-08       -0.796375        0.294556    -6.27155e-08    -3.45263e-07
                   -7.04401e-06     1.68416e-05     2.41707e-07     2.91411e-07     2.15931e-07     4.18712e-07        -0.79365        0.295559
     4.404e+07        -0.318608       -0.919792      0.00685583      0.00286712    -9.31912e-06     2.37045e-05    -7.05451e-06      1.7021e-05
                     0.00681177      0.00284241        0.750663       -0.630535     1.66532e-06    -3.57076e-07    -2.96719e-08    -4.87215e-07
                   -9.77067e-06     2.41173e-05     1.16333e-06     1.57247e-08       -0.795154        0.298099    -6.26845e-08    -3.39888e-07
                   -6.95681e-06     1.69399e-05     2.46578e-07     2.91125e-07     2.21967e-07     4.21398e-07        -0.79242        0.299086
     4.406e+07        -0.325335       -0.917356      0.00689202       0.0028281    -9.20523e-06     2.38557e-05    -6.96769e-06     1.71195e-05
                     0.00684784      0.00280361        0.746762       -0.635238     1.66907e-06    -3.74056e-07    -3.43956e-08    -4.84893e-07
                   -9.64951e-06     2.42635e-05     1.16193e-06      7.2791e-09       -0.793916        0.301636    -6.25764e-08    -3.34526e-07
                   -6.86886e-06     1.70378e-05     2.51484e-07     2.90765e-07     2.28014e-07     4.23951e-07       -0.791173        0.302607
     4.408e+07        -0.332054        -0.91487      0.00692812      0.00278871    -9.09009e-06     2.40067e-05     -6.8801e-06     1.72176e-05
                     0.00688382      0.00276446         0.74283       -0.639921     1.67263e-06    -3.91099e-07    -3.90502e-08    -4.82484e-07
                   -9.52719e-06     2.44093e-05     1.16042e-06    -1.22781e-09       -0.792663        0.305167    -6.23918e-08    -3.29178e-07
                   -6.78017e-06     1.71355e-05     2.56423e-07      2.9033e-07     2.34071e-07     4.26369e-07       -0.789911        0.306122
      4.41e+07        -0.338764       -0.912333      0.00696413      0.00274896     -8.9737e-06     2.41575e-05    -6.79173e-06     1.73154e-05
                     0.00691971      0.00272493        0.738865       -0.644583       1.676e-06    -4.08202e-07     -4.3634e-08    -4.79991e-07
                   -9.40371e-06     2.45548e-05     1.15882e-06    -9.79444e-09       -0.791393        0.308692    -6.21311e-08    -3.23846e-07
                   -6.69072e-06     1.72328e-05     2.61393e-07     2.89821e-07     2.40134e-07     4.28654e-07       -0.788632        0.309631
     4.412e+07        -0.345465       -0.909745      0.00700005      0.00270884    -8.85605e-06     2.43079e-05    -6.70259e-06     1.74129e-05
                     0.00695551      0.00268503        0.734868       -0.649224     1.67918e-06    -4.25364e-07    -4.81452e-08    -4.77414e-07
                   -9.27909e-06        2.47e-05     1.15712e-06    -1.84191e-08       -0.790106        0.312212    -6.17951e-08    -3.18533e-07
                   -6.60054e-06     1.73299e-05     2.66393e-07     2.89235e-07     2.46201e-07     4.30805e-07       -0.787337        0.313135
     4.414e+07        -0.352157       -0.907107      0.00703586      0.00266835    -8.73714e-06     2.44581e-05    -6.61269e-06       1.751e-05
                     0.00699121      0.00264477        0.730838       -0.653843     1.68216e-06    -4.42582e-07    -5.25823e-08    -4.74754e-07
                   -9.15331e-06     2.48448e-05     1.15532e-06    -2.71003e-08       -0.788804        0.315725    -6.13845e-08     -3.1324e-07
                   -6.50962e-06     1.74266e-05     2.71422e-07     2.88572e-07      2.5227e-07     4.32821e-07       -0.786026        0.316632
     4.416e+07        -0.358838       -0.904417      0.00707158      0.00262749    -8.61698e-06      2.4608e-05    -6.52201e-06     1.76069e-05
                      0.0070268      0.00260412        0.726777       -0.658442     1.68495e-06    -4.59853e-07    -5.69435e-08    -4.72012e-07
                   -9.02638e-06     2.49892e-05     1.15343e-06    -3.58362e-08       -0.787485        0.319233    -6.08998e-08    -3.07969e-07
                   -6.41795e-06      1.7523e-05     2.76479e-07     2.87832e-07     2.58339e-07     4.34704e-07       -0.784698        0.320123
     4.418e+07         -0.36551       -0.901677       0.0071072      0.00258626    -8.49556e-06     2.47576e-05    -6.43057e-06     1.77034e-05
                     0.00706229      0.00256311        0.722684       -0.663019     1.68754e-06    -4.77175e-07    -6.12273e-08     -4.6919e-07
                    -8.8983e-06     2.51333e-05     1.15143e-06    -4.46252e-08       -0.786149        0.322734     -6.0342e-08    -3.02722e-07
                   -6.32555e-06     1.76191e-05      2.8156e-07     2.87014e-07     2.64406e-07     4.36453e-07       -0.783354        0.323608
      4.42e+07        -0.372172       -0.898886       0.0071427      0.00254465    -8.37288e-06     2.49069e-05    -6.33837e-06     1.77996e-05
                     0.00709768      0.00252171        0.718558       -0.667574     1.68994e-06    -4.94546e-07    -6.54319e-08    -4.66288e-07
                   -8.76907e-06      2.5277e-05     1.14933e-06    -5.34654e-08       -0.784798        0.326229    -5.97117e-08    -2.97501e-07
                   -6.23241e-06     1.77149e-05     2.86667e-07     2.86118e-07     2.70467e-07     4.38068e-07       -0.781995        0.327087
     4.422e+07        -0.378822       -0.896043       0.0071781      0.00250266    -8.24894e-06     2.50558e-05     -6.2454e-06     1.78955e-05
                     0.00713295      0.00247994          0.7144       -0.672106     1.69214e-06    -5.11963e-07    -6.95559e-08    -4.63308e-07
                    -8.6387e-06     2.54203e-05     1.14712e-06    -6.23553e-08        -0.78343        0.329717    -5.90098e-08    -2.92307e-07
                   -6.13854e-06     1.78104e-05     2.91796e-07     2.85142e-07      2.7652e-07     4.39549e-07       -0.780618        0.330559
     4.424e+07        -0.385461       -0.893149      0.00721339       0.0024603    -8.12375e-06     2.52045e-05    -6.15168e-06      1.7991e-05
                     0.00716811      0.00243778        0.710211       -0.676617     1.69414e-06    -5.29424e-07    -7.35975e-08    -4.60251e-07
                   -8.50717e-06     2.55632e-05     1.14481e-06    -7.12931e-08       -0.782046          0.3332    -5.82372e-08    -2.87143e-07
                   -6.04393e-06     1.79056e-05     2.96946e-07     2.84086e-07     2.82564e-07     4.40897e-07       -0.779226        0.334025
     4.426e+07        -0.392088       -0.890204      0.00724856      0.00241755     -7.9973e-06     2.53529e-05     -6.0572e-06     1.80862e-05
                     0.00720316      0.00239525        0.705989       -0.681105     1.69594e-06    -5.46925e-07    -7.75553e-08    -4.57118e-07
                    -8.3745e-06     2.57058e-05     1.14239e-06    -8.02768e-08       -0.780645        0.336675    -5.73947e-08    -2.82009e-07
                   -5.94859e-06     1.80004e-05     3.02116e-07      2.8295e-07     2.88596e-07     4.42111e-07       -0.777818        0.337484
     4.428e+07        -0.398703       -0.887207      0.00728361      0.00237442    -7.86959e-06     2.55009e-05    -5.96196e-06     1.81811e-05
                     0.00723808      0.00235232        0.701736        -0.68557     1.69754e-06    -5.64466e-07    -8.14276e-08     -4.5391e-07
                   -8.24068e-06      2.5848e-05     1.13987e-06    -8.93048e-08       -0.779228        0.340144    -5.64832e-08    -2.76909e-07
                   -5.85252e-06     1.80949e-05     3.07304e-07     2.81734e-07     2.94613e-07     4.43193e-07       -0.776393        0.340937
      4.43e+07        -0.405306       -0.884159      0.00731854       0.0023309    -7.74062e-06     2.56486e-05    -5.86597e-06     1.82756e-05
                     0.00727288      0.00230902        0.697451       -0.690012     1.69894e-06    -5.82042e-07    -8.52129e-08     -4.5063e-07
                   -8.10572e-06     2.59898e-05     1.13724e-06    -9.83753e-08       -0.777795        0.343607    -5.55036e-08    -2.71843e-07
                   -5.75572e-06     1.81891e-05      3.1251e-07     2.80436e-07     3.00613e-07     4.44142e-07       -0.774953        0.344382
     4.432e+07        -0.411895       -0.881059      0.00735335        0.002287    -7.61039e-06      2.5796e-05    -5.76923e-06     1.83698e-05
                     0.00730756      0.00226532        0.693134       -0.694431     1.70014e-06    -5.99652e-07    -8.89096e-08    -4.47277e-07
                   -7.96961e-06     2.61312e-05      1.1345e-06    -1.07486e-07       -0.776346        0.347063    -5.44571e-08    -2.66813e-07
                   -5.65818e-06      1.8283e-05      3.1773e-07     2.79056e-07     3.06593e-07     4.44959e-07       -0.773496        0.347822
     4.434e+07        -0.418472       -0.877908      0.00738803      0.00224271     -7.4789e-06      2.5943e-05    -5.67173e-06     1.84637e-05
                     0.00734211      0.00222123        0.688786       -0.698826     1.70113e-06    -6.17292e-07    -9.25164e-08    -4.43854e-07
                   -7.83236e-06     2.62723e-05     1.13166e-06    -1.16636e-07        -0.77488        0.350511    -5.33445e-08    -2.61821e-07
                   -5.55992e-06     1.83766e-05     3.22965e-07     2.77594e-07     3.12553e-07     4.45644e-07       -0.772023        0.351254
     4.436e+07        -0.425034       -0.874705      0.00742257      0.00219803    -7.34615e-06     2.60897e-05    -5.57349e-06     1.85572e-05
                     0.00737652      0.00217675        0.684406       -0.703197     1.70192e-06    -6.34961e-07    -9.60315e-08    -4.40362e-07
                   -7.69396e-06     2.64129e-05      1.1287e-06    -1.25823e-07       -0.773398        0.353953    -5.21669e-08    -2.56868e-07
                   -5.46093e-06     1.84698e-05     3.28211e-07      2.7605e-07     3.18488e-07     4.46198e-07       -0.770534        0.354679
     4.438e+07        -0.431582        -0.87145      0.00745699      0.00215296    -7.21213e-06      2.6236e-05     -5.4745e-06     1.86503e-05
                      0.0074108      0.00213188        0.679994       -0.707545     1.70251e-06    -6.52656e-07    -9.94537e-08    -4.36803e-07
                   -7.55442e-06     2.65532e-05     1.12563e-06    -1.35044e-07         -0.7719        0.357388    -5.09254e-08    -2.51956e-07
                   -5.36122e-06     1.85627e-05     3.33469e-07     2.74423e-07     3.24397e-07     4.46621e-07       -0.769028        0.358097
      4.44e+07        -0.438116       -0.868143      0.00749126      0.00210749    -7.07685e-06      2.6382e-05    -5.37476e-06     1.87431e-05
                     0.00744494      0.00208661        0.675551       -0.711868     1.70289e-06    -6.70374e-07    -1.02781e-07    -4.33177e-07
                   -7.41372e-06      2.6693e-05     1.12245e-06    -1.44299e-07       -0.770386        0.360816    -4.96211e-08    -2.47086e-07
                   -5.26077e-06     1.86553e-05     3.38736e-07     2.72713e-07     3.30277e-07     4.46915e-07       -0.767507        0.361508
     4.442e+07        -0.444634       -0.864784      0.00752539      0.00206163    -6.94031e-06     2.65276e-05    -5.27427e-06     1.88356e-05
                     0.00747893      0.00204094        0.671076       -0.716167     1.70306e-06    -6.88112e-07    -1.06013e-07    -4.29487e-07
                   -7.27189e-06     2.68325e-05     1.11916e-06    -1.53585e-07       -0.768856        0.364236    -4.82551e-08    -2.42261e-07
                    -5.1596e-06     1.87475e-05      3.4401e-07     2.70919e-07     3.36126e-07     4.47079e-07        -0.76597        0.364911
     4.444e+07        -0.451137       -0.861374      0.00755938      0.00201537     -6.8025e-06     2.66729e-05    -5.17304e-06     1.89277e-05
                     0.00751278      0.00199488         0.66657       -0.720441     1.70303e-06    -7.05868e-07    -1.09148e-07    -4.25734e-07
                    -7.1289e-06     2.69715e-05     1.11575e-06      -1.629e-07       -0.767309        0.367649    -4.68285e-08     -2.3748e-07
                   -5.05771e-06     1.88394e-05     3.49291e-07     2.69041e-07     3.41943e-07     4.47114e-07       -0.764416        0.368308
     4.446e+07        -0.457624       -0.857911      0.00759322      0.00196871    -6.66342e-06     2.68177e-05    -5.07107e-06     1.90195e-05
                     0.00754648      0.00194841        0.662033       -0.724689     1.70279e-06    -7.23639e-07    -1.12184e-07     -4.2192e-07
                   -6.98477e-06     2.71101e-05     1.11223e-06    -1.72242e-07       -0.765747        0.371055    -4.53425e-08    -2.32746e-07
                   -4.95508e-06      1.8931e-05     3.54576e-07      2.6708e-07     3.47723e-07     4.47022e-07       -0.762847        0.371697
     4.448e+07        -0.464094       -0.854396      0.00762691      0.00192164    -6.52307e-06     2.69622e-05    -4.96835e-06     1.91109e-05
                     0.00758002      0.00190154        0.657465       -0.728913     1.70235e-06    -7.41422e-07     -1.1512e-07    -4.18046e-07
                   -6.83949e-06     2.72483e-05     1.10859e-06    -1.81609e-07       -0.764168        0.374454    -4.37984e-08    -2.28061e-07
                   -4.85173e-06     1.90222e-05     3.59865e-07     2.65034e-07     3.53466e-07     4.46802e-07       -0.761262        0.375078
      4.45e+07        -0.470548       -0.850829      0.00766044      0.00187418    -6.38146e-06     2.71063e-05     -4.8649e-06     1.92019e-05
                      0.0076134      0.00185427        0.652865       -0.733111      1.7017e-06    -7.59216e-07    -1.17954e-07    -4.14114e-07
                   -6.69306e-06     2.73861e-05     1.10484e-06       -1.91e-07       -0.762573        0.377844    -4.21973e-08    -2.23424e-07
                   -4.74766e-06     1.91131e-05     3.65155e-07     2.62904e-07     3.59169e-07     4.46456e-07        -0.75966        0.378452
     4.452e+07        -0.476984        -0.84721      0.00769381      0.00182631    -6.23857e-06     2.72501e-05     -4.7607e-06     1.92926e-05
                     0.00764663      0.00180659        0.648235       -0.737283     1.70084e-06    -7.77016e-07    -1.20686e-07    -4.10126e-07
                   -6.54548e-06     2.75235e-05     1.10098e-06    -2.00411e-07       -0.760962        0.381227    -4.05406e-08    -2.18839e-07
                   -4.64286e-06     1.92037e-05     3.70446e-07     2.60689e-07      3.6483e-07     4.45985e-07       -0.758043        0.381818
     4.454e+07        -0.483403       -0.843539      0.00772701      0.00177804     -6.0944e-06     2.73934e-05    -4.65575e-06     1.93829e-05
                     0.00767969      0.00175851        0.643573        -0.74143     1.69977e-06    -7.94821e-07    -1.23314e-07    -4.06083e-07
                   -6.39675e-06     2.76605e-05     1.09699e-06    -2.09843e-07       -0.759335        0.384603    -3.88294e-08    -2.14305e-07
                   -4.53733e-06     1.92939e-05     3.75735e-07     2.58389e-07     3.70446e-07     4.45389e-07        -0.75641        0.385176
     4.456e+07        -0.489803       -0.839816      0.00776005      0.00172936    -5.94897e-06     2.75363e-05    -4.55007e-06     1.94729e-05
                     0.00771257      0.00171002        0.638881       -0.745549     1.69849e-06    -8.12627e-07    -1.25836e-07    -4.01987e-07
                   -6.24687e-06      2.7797e-05     1.09289e-06    -2.19291e-07       -0.757692         0.38797    -3.70651e-08    -2.09825e-07
                   -4.43107e-06     1.93838e-05     3.81021e-07     2.56004e-07     3.76015e-07      4.4467e-07        -0.75476        0.388526
     4.458e+07        -0.496185        -0.83604      0.00779292      0.00168027    -5.80225e-06     2.76788e-05    -4.44365e-06     1.95625e-05
                     0.00774529      0.00166111        0.634158       -0.749643     1.69701e-06    -8.30432e-07    -1.28253e-07     -3.9784e-07
                   -6.09583e-06     2.79331e-05     1.08867e-06    -2.28754e-07       -0.756033         0.39133    -3.52491e-08    -2.05399e-07
                   -4.32409e-06     1.94733e-05     3.86303e-07     2.53534e-07     3.81535e-07     4.43829e-07       -0.753095        0.391868
      4.46e+07        -0.502547       -0.832212      0.00782561      0.00163077    -5.65426e-06     2.78209e-05    -4.33648e-06     1.96517e-05
                     0.00777782       0.0016118        0.629404       -0.753709     1.69531e-06    -8.48233e-07    -1.30561e-07    -3.93644e-07
                   -5.94363e-06     2.80688e-05     1.08434e-06    -2.38231e-07       -0.754358        0.394681    -3.33825e-08    -2.01029e-07
                   -4.21638e-06     1.95625e-05     3.91578e-07     2.50979e-07     3.87004e-07     4.42866e-07       -0.751414        0.395203
     4.462e+07         -0.50889       -0.828331      0.00785813      0.00158085    -5.50498e-06     2.79626e-05    -4.22858e-06     1.97406e-05
                     0.00781018      0.00156207         0.62462       -0.757749      1.6934e-06    -8.66028e-07    -1.32761e-07      -3.894e-07
                   -5.79028e-06     2.82041e-05     1.07988e-06    -2.47718e-07       -0.752667        0.398024    -3.14669e-08    -1.96715e-07
                   -4.10793e-06     1.96514e-05     3.96846e-07     2.48339e-07      3.9242e-07     4.41783e-07       -0.749718        0.398529
     4.464e+07        -0.515213       -0.824399      0.00789046      0.00153053    -5.35443e-06     2.81039e-05    -4.11994e-06     1.98291e-05
                     0.00784235      0.00151193        0.619805       -0.761761     1.69129e-06    -8.83814e-07    -1.34851e-07    -3.85112e-07
                   -5.63577e-06     2.83389e-05     1.07531e-06    -2.57215e-07        -0.75096         0.40136    -2.95035e-08     -1.9246e-07
                   -3.99876e-06     1.97399e-05     4.02105e-07     2.45614e-07     3.97781e-07     4.40582e-07       -0.748005        0.401846
     4.466e+07        -0.521515       -0.820413       0.0079226      0.00147979    -5.20259e-06     2.82447e-05    -4.01055e-06     1.99172e-05
                     0.00787433      0.00146137         0.61496       -0.765745     1.68897e-06    -9.01587e-07     -1.3683e-07    -3.80779e-07
                    -5.4801e-06     2.84733e-05     1.07062e-06    -2.66718e-07       -0.749237        0.404686    -2.74938e-08    -1.88263e-07
                   -3.88886e-06      1.9828e-05     4.07354e-07     2.42804e-07     4.03084e-07     4.39262e-07       -0.746277        0.405156
     4.468e+07        -0.527796       -0.816376      0.00795455      0.00142863    -5.04946e-06     2.83851e-05    -3.90043e-06     2.00049e-05
                     0.00790611       0.0014104        0.610085       -0.769702     1.68643e-06    -9.19346e-07    -1.38696e-07    -3.76405e-07
                   -5.32326e-06     2.86072e-05      1.0658e-06    -2.76226e-07       -0.747499        0.408005    -2.54393e-08    -1.84126e-07
                   -3.77823e-06     1.99158e-05      4.1259e-07     2.39909e-07     4.08327e-07     4.37826e-07       -0.744532        0.408457
      4.47e+07        -0.534056       -0.812286       0.0079863      0.00137705    -4.89504e-06     2.85251e-05    -3.78956e-06     2.00923e-05
                      0.0079377        0.001359        0.605179        -0.77363     1.68369e-06    -9.37087e-07     -1.4045e-07    -3.71991e-07
                   -5.16526e-06     2.87407e-05     1.06087e-06    -2.85737e-07       -0.745744        0.411315    -2.33412e-08     -1.8005e-07
                   -3.66686e-06     2.00033e-05     4.17813e-07     2.36929e-07     4.13508e-07     4.36275e-07       -0.742773        0.411749
     4.472e+07        -0.540294       -0.808144      0.00801786      0.00132506    -4.73933e-06     2.86646e-05    -3.67796e-06     2.01793e-05
                     0.00796908      0.00130719        0.600244        -0.77753     1.68073e-06    -9.54808e-07    -1.42089e-07     -3.6754e-07
                   -5.00609e-06     2.88738e-05     1.05582e-06    -2.95248e-07       -0.743974        0.414616    -2.12011e-08    -1.76035e-07
                   -3.55476e-06     2.00904e-05     4.23021e-07     2.33863e-07     4.18626e-07      4.3461e-07       -0.740997        0.415033
     4.474e+07         -0.54651       -0.803949      0.00804921      0.00127264    -4.58233e-06     2.88037e-05    -3.56561e-06     2.02659e-05
                     0.00800026      0.00125496        0.595279       -0.781402     1.67757e-06    -9.72505e-07    -1.43613e-07    -3.63053e-07
                   -4.84575e-06     2.90064e-05     1.05065e-06    -3.04758e-07       -0.742188        0.417909    -1.90205e-08    -1.72084e-07
                   -3.44193e-06     2.01772e-05     4.28212e-07     2.30713e-07     4.23678e-07     4.32833e-07       -0.739206        0.418308
     4.476e+07        -0.552702       -0.799702      0.00808035       0.0012198    -4.42403e-06     2.89423e-05    -3.45252e-06     2.03521e-05
                     0.00803122       0.0012023        0.590284       -0.785244     1.67419e-06    -9.90177e-07    -1.45022e-07    -3.58532e-07
                   -4.68423e-06     2.91385e-05     1.04535e-06    -3.14264e-07       -0.740386        0.421192    -1.68008e-08    -1.68195e-07
                   -3.32836e-06     2.02635e-05     4.33385e-07     2.27479e-07     4.28662e-07     4.30945e-07       -0.737399        0.421575
     4.478e+07        -0.558871       -0.795402      0.00811128      0.00116654    -4.26443e-06     2.90804e-05    -3.33869e-06      2.0438e-05
                     0.00806197      0.00114922        0.585259       -0.789057     1.67061e-06    -1.00782e-06    -1.46313e-07    -3.53981e-07
                   -4.52154e-06     2.92702e-05     1.03994e-06    -3.23765e-07       -0.738568        0.424467    -1.45435e-08    -1.64372e-07
                   -3.21405e-06     2.03496e-05     4.38538e-07      2.2416e-07     4.33576e-07     4.28947e-07       -0.735577        0.424832
      4.48e+07        -0.565016        -0.79105      0.00814199      0.00111285    -4.10353e-06     2.92181e-05    -3.22411e-06     2.05234e-05
                      0.0080925      0.00109572        0.580205       -0.792841     1.66682e-06    -1.02543e-06    -1.47486e-07    -3.49399e-07
                   -4.35767e-06     2.94014e-05      1.0344e-06    -3.33257e-07       -0.736735        0.427733    -1.22502e-08    -1.60613e-07
                   -3.09899e-06     2.04353e-05      4.4367e-07     2.20756e-07     4.38419e-07     4.26842e-07       -0.733739        0.428081
     4.482e+07        -0.571137       -0.786646      0.00817247      0.00105874    -3.94132e-06     2.93553e-05    -3.10879e-06     2.06085e-05
                      0.0081228      0.00104179        0.575121       -0.796595     1.66281e-06    -1.04301e-06     -1.4854e-07    -3.44791e-07
                   -4.19261e-06     2.95322e-05     1.02875e-06    -3.42739e-07       -0.734886         0.43099    -9.92227e-09     -1.5692e-07
                    -2.9832e-06     2.05206e-05     4.48779e-07     2.17269e-07     4.43188e-07      4.2463e-07       -0.731885         0.43132
     4.484e+07        -0.577233       -0.782189      0.00820273       0.0010042     -3.7778e-06     2.94921e-05    -2.99272e-06     2.06932e-05
                     0.00815288      0.00098743        0.570008       -0.800319      1.6586e-06    -1.06055e-06    -1.49475e-07    -3.40157e-07
                   -4.02637e-06     2.96625e-05     1.02297e-06    -3.52209e-07       -0.733022        0.434238    -7.56134e-09    -1.53294e-07
                   -2.86667e-06     2.06056e-05     4.53864e-07     2.13698e-07     4.47882e-07     4.22313e-07       -0.730016         0.43455
     4.486e+07        -0.583303        -0.77768      0.00823276     0.000949236    -3.61298e-06     2.96283e-05    -2.87591e-06     2.07775e-05
                     0.00818272     0.000932646        0.564867       -0.804012     1.65418e-06    -1.07805e-06     -1.5029e-07    -3.35501e-07
                   -3.85894e-06     2.97923e-05     1.01707e-06    -3.61665e-07       -0.731142        0.437476    -5.16894e-09    -1.49735e-07
                   -2.74938e-06     2.06901e-05     4.58924e-07     2.10043e-07     4.52498e-07     4.19894e-07       -0.728132        0.437771
     4.488e+07        -0.589347       -0.773119      0.00826255     0.000893841    -3.44684e-06     2.97641e-05    -2.75835e-06     2.08614e-05
                     0.00821232     0.000877432        0.559696       -0.807675     1.64955e-06    -1.09551e-06    -1.50983e-07    -3.30824e-07
                   -3.69032e-06     2.99217e-05     1.01106e-06    -3.71103e-07       -0.729247        0.440705     -2.7466e-09    -1.46244e-07
                   -2.63135e-06     2.07744e-05     4.63957e-07     2.06305e-07     4.57035e-07     4.17373e-07       -0.726232        0.440983
      4.49e+07        -0.595365       -0.768505      0.00829211     0.000838015    -3.27938e-06     2.98994e-05    -2.64003e-06      2.0945e-05
                     0.00824167      0.00082179        0.554496       -0.811308     1.64471e-06    -1.11292e-06    -1.51555e-07    -3.26129e-07
                   -3.52049e-06     3.00506e-05     1.00492e-06    -3.80524e-07       -0.727336        0.443925    -2.95894e-10    -1.42822e-07
                   -2.51257e-06     2.08582e-05     4.68961e-07     2.02484e-07     4.61491e-07     4.14753e-07       -0.724317        0.444185
     4.492e+07        -0.601356       -0.763839      0.00832141     0.000781759     -3.1106e-06     3.00341e-05    -2.52097e-06     2.10281e-05
                     0.00827078     0.000765716        0.549268       -0.814909     1.63967e-06    -1.13028e-06    -1.52005e-07    -3.21417e-07
                   -3.34947e-06      3.0179e-05     9.98658e-07    -3.89923e-07       -0.725409        0.447135     2.18161e-09    -1.39468e-07
                   -2.39304e-06     2.09417e-05     4.73935e-07     1.98581e-07     4.65865e-07     4.12035e-07       -0.722387        0.447377
     4.494e+07         -0.60732       -0.759121      0.00835047     0.000725071     -2.9405e-06     3.01684e-05    -2.40115e-06     2.11108e-05
                     0.00829963     0.000709212        0.544011       -0.818478     1.63441e-06    -1.14759e-06    -1.52331e-07    -3.16692e-07
                   -3.17725e-06     3.03069e-05     9.92277e-07    -3.99299e-07       -0.723468        0.450336     4.68433e-09    -1.36184e-07
                   -2.27275e-06     2.10249e-05     4.78877e-07     1.94595e-07     4.70154e-07     4.09221e-07       -0.720441         0.45056
     4.496e+07        -0.613255       -0.754351      0.00837927     0.000667951    -2.76907e-06     3.03021e-05    -2.28058e-06     2.11931e-05
                     0.00832823     0.000652275        0.538726       -0.822016     1.62895e-06    -1.16485e-06    -1.52534e-07    -3.11955e-07
                   -3.00381e-06     3.04343e-05     9.85777e-07    -4.08651e-07       -0.721511        0.453527      7.2107e-09     -1.3297e-07
                   -2.15171e-06     2.11076e-05     4.83787e-07     1.90528e-07     4.74357e-07     4.06312e-07        -0.71848        0.453733
     4.498e+07        -0.619163       -0.749529      0.00840781     0.000610397    -2.59631e-06     3.04353e-05    -2.15926e-06     2.12751e-05
                     0.00835656     0.000594905        0.533413       -0.825522     1.62329e-06    -1.18206e-06    -1.52613e-07    -3.07209e-07
                   -2.82916e-06     3.05613e-05     9.79156e-07    -4.17974e-07       -0.719538        0.456708     9.75911e-09    -1.29827e-07
                    -2.0299e-06       2.119e-05     4.88663e-07     1.86379e-07     4.78472e-07     4.03312e-07       -0.716504        0.456896
       4.5e+07        -0.625041       -0.744655      0.00843608     0.000552408    -2.42221e-06      3.0568e-05    -2.03717e-06     2.13566e-05
                     0.00838462     0.000537102        0.528072       -0.828996     1.61741e-06     -1.1992e-06    -1.52568e-07    -3.02456e-07
                    -2.6533e-06     3.06877e-05     9.72416e-07    -4.27269e-07       -0.717551        0.459879      1.2328e-08    -1.26754e-07
                   -1.90733e-06      2.1272e-05     4.93502e-07     1.82149e-07     4.82498e-07     4.00222e-07       -0.714513         0.46005
     4.502e+07        -0.630889       -0.739729      0.00846408     0.000493984    -2.24677e-06     3.07002e-05    -1.91433e-06     2.14377e-05
                     0.00841241     0.000478865        0.522703       -0.832438     1.61134e-06    -1.21628e-06    -1.52397e-07    -2.97698e-07
                   -2.47621e-06     3.08137e-05     9.65557e-07    -4.36532e-07       -0.715548         0.46304     1.49157e-08    -1.23752e-07
                     -1.784e-06     2.13536e-05     4.98305e-07     1.77839e-07     4.86433e-07     3.97043e-07       -0.712507        0.463193
     4.504e+07        -0.636708       -0.734752      0.00849181     0.000435125    -2.06999e-06     3.08318e-05    -1.79072e-06     2.15184e-05
                     0.00843992     0.000420192        0.517306       -0.835847     1.60506e-06     -1.2333e-06    -1.52101e-07    -2.92938e-07
                   -2.29789e-06     3.09391e-05     9.58578e-07     -4.4576e-07        -0.71353        0.466191     1.75207e-08    -1.20822e-07
                    -1.6599e-06     2.14348e-05     5.03069e-07     1.73449e-07     4.90276e-07     3.93778e-07       -0.710486        0.466326
     4.506e+07        -0.642496       -0.729722      0.00851926     0.000375829    -1.89187e-06     3.09629e-05    -1.66635e-06     2.15987e-05
                     0.00846714     0.000361085        0.511882       -0.839222     1.59857e-06    -1.25024e-06    -1.51679e-07    -2.88178e-07
                   -2.11835e-06      3.1064e-05      9.5148e-07    -4.54953e-07       -0.711497        0.469331     2.01413e-08    -1.17964e-07
                   -1.53502e-06     2.15157e-05     5.07793e-07      1.6898e-07     4.94024e-07     3.90428e-07       -0.708449        0.469449
     4.508e+07        -0.648253       -0.724641      0.00854642     0.000316096    -1.71239e-06     3.10934e-05    -1.54121e-06     2.16786e-05
                     0.00849408     0.000301541         0.50643       -0.842565     1.59188e-06    -1.26712e-06    -1.51132e-07    -2.83421e-07
                   -1.93756e-06     3.11885e-05     9.44265e-07    -4.64108e-07       -0.709449        0.472462      2.2776e-08    -1.15178e-07
                   -1.40937e-06     2.15961e-05     5.12475e-07     1.64432e-07     4.97678e-07     3.86997e-07       -0.706398        0.472562
      4.51e+07        -0.653978       -0.719508      0.00857329     0.000255926    -1.53156e-06     3.12234e-05    -1.41531e-06     2.17581e-05
                     0.00852072     0.000241562        0.500952       -0.845874     1.58499e-06    -1.28393e-06    -1.50457e-07    -2.78669e-07
                   -1.75554e-06     3.13124e-05     9.36931e-07    -4.73223e-07       -0.707386        0.475582     2.54231e-08    -1.12463e-07
                   -1.28295e-06     2.16762e-05     5.17115e-07     1.59806e-07     5.01234e-07     3.83485e-07       -0.704332        0.475664
     4.512e+07        -0.659671       -0.714324      0.00859986     0.000195318    -1.34936e-06     3.13528e-05    -1.28863e-06     2.18372e-05
                     0.00854707     0.000181146        0.495446       -0.849149      1.5779e-06    -1.30066e-06    -1.49657e-07    -2.73925e-07
                   -1.57226e-06     3.14358e-05     9.29481e-07    -4.82296e-07       -0.705308        0.478692      2.8081e-08    -1.09822e-07
                   -1.15574e-06     2.17559e-05     5.21711e-07     1.55102e-07     5.04693e-07     3.79896e-07       -0.702251        0.478756
     4.514e+07        -0.665331       -0.709088      0.00862613     0.000134271    -1.16581e-06     3.14816e-05    -1.16117e-06     2.19158e-05
                      0.0085731     0.000120293        0.489914        -0.85239     1.57061e-06    -1.31731e-06    -1.48729e-07    -2.69191e-07
                   -1.38774e-06     3.15586e-05     9.21914e-07    -4.91323e-07       -0.703215        0.481791     3.07482e-08    -1.07252e-07
                   -1.02775e-06     2.18352e-05     5.26262e-07     1.50321e-07     5.08052e-07      3.7623e-07       -0.700156        0.481838
     4.516e+07        -0.670958       -0.703801       0.0086521     7.27854e-05    -9.80886e-07     3.16099e-05    -1.03294e-06      2.1994e-05
                     0.00859883     5.90023e-05        0.484355       -0.855597     1.56312e-06    -1.33388e-06    -1.47675e-07    -2.64469e-07
                   -1.20196e-06      3.1681e-05     9.14231e-07    -5.00305e-07       -0.701108         0.48488      3.3423e-08    -1.04756e-07
                   -8.98965e-07     2.19141e-05     5.30766e-07     1.45464e-07      5.1131e-07     3.72491e-07       -0.698046        0.484908
     4.518e+07        -0.676552       -0.698463      0.00867775     1.08608e-05     -7.9459e-07     3.17376e-05    -9.03933e-07     2.20718e-05
                     0.00862424    -2.72545e-06         0.47877       -0.858769     1.55543e-06    -1.35036e-06    -1.46493e-07    -2.59761e-07
                   -1.01491e-06     3.18028e-05     9.06432e-07    -5.09238e-07       -0.698986        0.487957     3.61037e-08    -1.02332e-07
                   -7.69393e-07     2.19925e-05     5.35222e-07     1.40531e-07     5.14466e-07     3.68681e-07       -0.695921        0.487968
      4.52e+07        -0.682111       -0.693074      0.00870309    -5.15033e-05    -6.06917e-07     3.18646e-05     -7.7414e-07     2.21492e-05
                     0.00864933    -6.48907e-05        0.473159       -0.861906     1.54754e-06    -1.36676e-06    -1.45185e-07    -2.55072e-07
                   -8.26592e-07      3.1924e-05     8.98519e-07     -5.1812e-07       -0.696848        0.491024      3.8789e-08    -9.99799e-08
                   -6.39025e-07     2.20706e-05     5.39628e-07     1.35522e-07     5.17519e-07     3.64802e-07       -0.693781        0.491017
     4.522e+07        -0.687635       -0.687634       0.0087281    -0.000114307    -4.17861e-07     3.19911e-05    -6.43562e-07     2.22261e-05
                      0.0086741    -0.000127494        0.467521       -0.865008     1.53946e-06    -1.38307e-06    -1.43749e-07    -2.50402e-07
                      -6.37e-07     3.20447e-05     8.90491e-07    -5.26949e-07       -0.694697         0.49408      4.1477e-08    -9.77009e-08
                   -5.07858e-07     2.21483e-05     5.43984e-07      1.3044e-07     5.20468e-07     3.60856e-07       -0.691627        0.494056
     4.524e+07        -0.693123       -0.682143      0.00875278     -0.00017755    -2.27419e-07      3.2117e-05    -5.12194e-07     2.23026e-05
                     0.00869853    -0.000190534        0.461858       -0.868075     1.53118e-06    -1.39929e-06    -1.42187e-07    -2.45754e-07
                   -4.46126e-07     3.21649e-05     8.82351e-07    -5.35723e-07       -0.692531        0.497125     4.41662e-08    -9.54943e-08
                   -3.75888e-07     2.22256e-05     5.48288e-07     1.25284e-07     5.23312e-07     3.56846e-07       -0.689459        0.497083
     4.526e+07        -0.698576       -0.676601      0.00877713    -0.000241233    -3.55855e-08     3.22422e-05    -3.80035e-07     2.23787e-05
                     0.00872262    -0.000254012         0.45617       -0.871106     1.52271e-06    -1.41541e-06    -1.40497e-07    -2.41132e-07
                   -2.53965e-07     3.22845e-05     8.74097e-07     -5.4444e-07        -0.69035        0.500159     4.68551e-08    -9.33601e-08
                   -2.43111e-07     2.23024e-05     5.52539e-07     1.20055e-07     5.26049e-07     3.52773e-07       -0.687276        0.500099
     4.528e+07        -0.703992       -0.671009      0.00880113    -0.000305356     1.57645e-07     3.23669e-05    -2.47081e-07     2.24543e-05
                     0.00874637    -0.000317928        0.450456       -0.874101     1.51404e-06    -1.43144e-06    -1.38681e-07    -2.36537e-07
                   -6.05101e-08     3.24036e-05     8.65733e-07    -5.53099e-07       -0.688155        0.503182     4.95421e-08     -9.1298e-08
                   -1.09523e-07     2.23788e-05     5.56736e-07     1.14754e-07     5.28679e-07     3.48641e-07       -0.685079        0.503104
      4.53e+07        -0.709371       -0.665367      0.00882479    -0.000369918     3.52277e-07     3.24909e-05    -1.13327e-07     2.25295e-05
                     0.00876977    -0.000382281        0.444718        -0.87706     1.50519e-06    -1.44736e-06    -1.36739e-07    -2.31972e-07
                    1.34245e-07      3.2522e-05     8.57257e-07    -5.61696e-07       -0.685945        0.506193     5.22256e-08     -8.9308e-08
                    2.48794e-08     2.24548e-05     5.60876e-07     1.09382e-07       5.312e-07     3.44451e-07       -0.682867        0.506097
     4.532e+07        -0.714713       -0.659675       0.0088481     -0.00043492     5.48315e-07     3.26142e-05     2.12278e-08     2.26042e-05
                     0.00879282    -0.000447072        0.438954       -0.879982     1.49614e-06    -1.46318e-06     -1.3467e-07     -2.2744e-07
                    3.30307e-07     3.26399e-05     8.48672e-07     -5.7023e-07       -0.683721        0.509194     5.49039e-08    -8.73898e-08
                    1.60101e-07     2.25304e-05      5.6496e-07      1.0394e-07     5.33612e-07     3.40207e-07       -0.680642         0.50908
     4.534e+07        -0.720016       -0.653932      0.00887106    -0.000500362     7.45765e-07      3.2737e-05     1.56589e-07     2.26785e-05
                      0.0088155    -0.000512299        0.433166       -0.882868      1.4869e-06     -1.4789e-06    -1.32475e-07    -2.22942e-07
                    5.27682e-07     3.27573e-05     8.39978e-07    -5.78699e-07       -0.681483        0.512182     5.75757e-08    -8.55431e-08
                    2.96146e-07     2.26055e-05     5.68986e-07     9.84274e-08     5.35914e-07     3.35909e-07       -0.678402         0.51205
     4.536e+07        -0.725281        -0.64814      0.00889364    -0.000566243     9.44633e-07      3.2859e-05     2.92759e-07     2.27523e-05
                     0.00883782    -0.000577962        0.427353       -0.885717     1.47748e-06    -1.49451e-06    -1.30155e-07    -2.18483e-07
                    7.26377e-07      3.2874e-05     8.31176e-07    -5.87102e-07       -0.679231        0.515159     6.02393e-08    -8.37676e-08
                    4.33019e-07     2.26803e-05     5.72953e-07     9.28465e-08     5.38105e-07     3.31562e-07       -0.676148         0.51501
     4.538e+07        -0.730506       -0.642298      0.00891586    -0.000632562     1.14492e-06     3.29804e-05     4.29742e-07     2.28257e-05
                     0.00885977    -0.000644062        0.421516       -0.888528     1.46787e-06    -1.51001e-06    -1.27709e-07    -2.14063e-07
                    9.26399e-07     3.29902e-05     8.22267e-07    -5.95435e-07       -0.676964        0.518125     6.28932e-08    -8.20629e-08
                    5.70724e-07     2.27545e-05     5.76859e-07     8.71978e-08     5.40185e-07     3.27167e-07        -0.67388        0.517957
      4.54e+07        -0.735692       -0.636407      0.00893771     -0.00069932     1.34664e-06     3.31012e-05     5.67541e-07     2.28986e-05
                     0.00888134    -0.000710597        0.415656       -0.891303     1.45807e-06     -1.5254e-06    -1.25139e-07    -2.09687e-07
                    1.12776e-06     3.31057e-05     8.13253e-07    -6.03697e-07       -0.674684        0.521079     6.55358e-08    -8.04288e-08
                    7.09265e-07     2.28284e-05     5.80704e-07      8.1482e-08     5.42152e-07     3.22727e-07       -0.671598        0.520893
     4.542e+07        -0.740837       -0.630466      0.00895917    -0.000766516     1.54979e-06     3.32212e-05     7.06161e-07     2.29711e-05
                     0.00890252    -0.000777567        0.409772       -0.894039      1.4481e-06    -1.54067e-06    -1.22444e-07    -2.05356e-07
                    1.33045e-06     3.32207e-05     8.04134e-07    -6.11887e-07       -0.672389        0.524021     6.81658e-08    -7.88647e-08
                    8.48647e-07     2.29017e-05     5.84486e-07     7.57003e-08     5.44006e-07     3.18245e-07       -0.669302        0.523817
     4.544e+07        -0.745941       -0.624476      0.00898025    -0.000834149     1.75438e-06     3.33406e-05     8.45606e-07     2.30431e-05
                     0.00892332    -0.000844972        0.403864       -0.896738     1.43794e-06    -1.55583e-06    -1.19625e-07    -2.01072e-07
                     1.5345e-06      3.3335e-05     7.94911e-07    -6.20001e-07       -0.670081        0.526951     7.07814e-08    -7.73703e-08
                    9.88875e-07     2.29747e-05     5.88204e-07     6.98534e-08     5.45747e-07     3.13722e-07       -0.666993         0.52673
     4.546e+07        -0.751004       -0.618438      0.00900094     -0.00090222     1.96041e-06     3.34592e-05     9.85879e-07     2.31146e-05
                     0.00894372     -0.00091281        0.397933       -0.899398     1.42759e-06    -1.57086e-06    -1.16683e-07     -1.9684e-07
                     1.7399e-06     3.34487e-05     7.85586e-07    -6.28039e-07       -0.667759        0.529869     7.33814e-08    -7.59451e-08
                    1.12995e-06     2.30471e-05     5.91858e-07     6.39424e-08     5.47373e-07     3.09162e-07        -0.66467         0.52963
     4.548e+07        -0.756025        -0.61235      0.00902122    -0.000970726      2.1679e-06     3.35772e-05     1.12698e-06     2.31856e-05
                     0.00896371    -0.000981081         0.39198        -0.90202     1.41708e-06    -1.58578e-06    -1.13619e-07     -1.9266e-07
                    1.94666e-06     3.35618e-05      7.7616e-07    -6.35999e-07       -0.665423        0.532775     7.59641e-08    -7.45884e-08
                    1.27188e-06     2.31192e-05     5.95445e-07     5.79682e-08     5.48885e-07     3.04567e-07       -0.662333        0.532518
      4.55e+07        -0.761003       -0.606215      0.00904111     -0.00103967     2.37684e-06     3.36945e-05     1.26893e-06     2.32561e-05
                      0.0089833     -0.00104978        0.386003       -0.904603     1.40638e-06    -1.60056e-06    -1.10433e-07    -1.88536e-07
                    2.15479e-06     3.36742e-05     7.66634e-07    -6.43878e-07       -0.663073        0.535669     7.85282e-08    -7.32999e-08
                    1.41468e-06     2.31907e-05     5.98966e-07     5.19318e-08     5.50282e-07     2.99939e-07       -0.659983        0.535394
     4.552e+07        -0.765938       -0.600031      0.00906058     -0.00110905     2.58724e-06      3.3811e-05     1.41171e-06     2.33262e-05
                     0.00900248     -0.00111892        0.380005       -0.907147     1.39551e-06    -1.61522e-06    -1.07126e-07     -1.8447e-07
                     2.3643e-06     3.37861e-05      7.5701e-07    -6.51674e-07        -0.66071        0.538551     8.10722e-08    -7.20789e-08
                    1.55833e-06     2.32618e-05     6.02418e-07     4.58342e-08     5.51563e-07     2.95282e-07       -0.657619        0.538258
     4.554e+07        -0.770829       -0.593799      0.00907963     -0.00117886      2.7991e-06     3.39268e-05     1.55534e-06     2.33957e-05
                     0.00902123     -0.00118848        0.373984       -0.909652     1.38446e-06    -1.62975e-06    -1.03698e-07    -1.80465e-07
                    2.57519e-06     3.38972e-05     7.47288e-07    -6.59387e-07       -0.658334        0.541421     8.35947e-08    -7.09247e-08
                    1.70286e-06     2.33324e-05     6.05802e-07     3.96765e-08     5.52729e-07     2.90597e-07       -0.655242         0.54111
     4.556e+07        -0.775676        -0.58752      0.00909826      -0.0012491     3.01244e-06     3.40418e-05     1.69981e-06     2.34648e-05
                     0.00903956     -0.00125848        0.367941       -0.912117     1.37325e-06    -1.64415e-06    -1.00151e-07    -1.76523e-07
                    2.78748e-06     3.40077e-05     7.37471e-07    -6.67014e-07       -0.655943        0.544278     8.60943e-08    -6.98367e-08
                    1.84826e-06     2.34025e-05     6.09115e-07     3.34597e-08     5.53779e-07     2.85887e-07       -0.652851        0.543949
     4.558e+07        -0.780478       -0.581193      0.00911646     -0.00131977     3.22726e-06     3.41561e-05     1.84514e-06     2.35334e-05
                     0.00905746      -0.0013289        0.361877       -0.914543     1.36186e-06    -1.65842e-06    -9.64861e-08    -1.72647e-07
                    3.00117e-06     3.41176e-05     7.27559e-07    -6.74554e-07        -0.65354        0.547123     8.85695e-08    -6.88143e-08
                    1.99453e-06     2.34721e-05     6.12357e-07     2.71848e-08     5.54713e-07     2.81156e-07       -0.650447        0.546776
      4.56e+07        -0.785235       -0.574819      0.00913423     -0.00139088     3.44357e-06     3.42696e-05     1.99133e-06     2.36014e-05
                     0.00907492     -0.00139975        0.355792       -0.916929     1.35031e-06    -1.67254e-06    -9.27032e-08    -1.68839e-07
                    3.21627e-06     3.42267e-05     7.17555e-07    -6.82004e-07       -0.651123        0.549955     9.10191e-08    -6.78567e-08
                    2.14169e-06     2.35412e-05     6.15528e-07     2.08529e-08      5.5553e-07     2.76405e-07        -0.64803        0.549591
     4.562e+07        -0.789946       -0.568398      0.00915155     -0.00146242     3.66136e-06     3.43824e-05     2.13838e-06      2.3669e-05
                     0.00909193     -0.00147102        0.349685       -0.919275     1.33859e-06    -1.68653e-06    -8.88037e-08    -1.65102e-07
                    3.43278e-06     3.43352e-05     7.07458e-07    -6.89364e-07       -0.648693        0.552774     9.34416e-08    -6.69632e-08
                    2.28974e-06     2.36099e-05     6.18625e-07     1.44651e-08     5.56231e-07     2.71637e-07         -0.6456        0.552392
     4.564e+07         -0.79461        -0.56193      0.00916843     -0.00153438     3.88066e-06     3.44944e-05      2.2863e-06      2.3736e-05
                      0.0091085     -0.00154272        0.343558       -0.921581      1.3267e-06    -1.70038e-06    -8.47888e-08    -1.61438e-07
                    3.65071e-06      3.4443e-05     6.97272e-07     -6.9663e-07        -0.64625        0.555581     9.58357e-08     -6.6133e-08
                    2.43869e-06      2.3678e-05     6.21649e-07     8.02255e-09     5.56815e-07     2.66855e-07       -0.643157        0.555182
     4.566e+07        -0.799227       -0.555416      0.00918485     -0.00160677     4.10145e-06     3.46056e-05     2.43509e-06     2.38025e-05
                     0.00912461     -0.00161484         0.33741       -0.923846     1.31466e-06    -1.71409e-06    -8.06595e-08    -1.57851e-07
                    3.87008e-06     3.45501e-05     6.86997e-07    -7.03803e-07       -0.643794        0.558376     9.82002e-08    -6.53652e-08
                    2.58853e-06     2.37456e-05     6.24597e-07     1.52631e-09     5.57283e-07     2.62061e-07       -0.640701        0.557958
     4.568e+07        -0.803797       -0.548856      0.00920082     -0.00167959     4.32375e-06      3.4716e-05     2.58476e-06     2.38685e-05
                     0.00914025     -0.00168738        0.331243        -0.92607     1.30245e-06    -1.72764e-06     -7.6417e-08    -1.54341e-07
                    4.09089e-06     3.46565e-05     6.76636e-07     -7.1088e-07       -0.641325        0.561157     1.00534e-07     -6.4659e-08
                    2.73927e-06     2.38127e-05     6.27471e-07    -5.02246e-09     5.57634e-07     2.57259e-07       -0.638232        0.560721
      4.57e+07        -0.808318        -0.54225      0.00921631     -0.00175283     4.54757e-06     3.48255e-05     2.73531e-06     2.39339e-05
                     0.00915542     -0.00176034        0.325055       -0.928253     1.29008e-06    -1.74106e-06    -7.20625e-08    -1.50913e-07
                    4.31315e-06     3.47621e-05     6.66189e-07    -7.17859e-07       -0.638843        0.563925     1.02835e-07    -6.40135e-08
                    2.89092e-06     2.38793e-05     6.30268e-07    -1.16226e-08     5.57869e-07      2.5245e-07       -0.635751        0.563472
     4.572e+07        -0.812791       -0.535598      0.00923133     -0.00182649     4.77291e-06     3.49343e-05     2.88674e-06     2.39988e-05
                     0.00917012     -0.00183372        0.318848       -0.930395     1.27756e-06    -1.75432e-06    -6.75973e-08    -1.47568e-07
                    4.53686e-06      3.4867e-05     6.55659e-07    -7.24739e-07       -0.636348        0.566681     1.05103e-07    -6.34279e-08
                    3.04349e-06     2.39453e-05     6.32987e-07     -1.8273e-08     5.57988e-07     2.47637e-07       -0.633256         0.56621
     4.574e+07        -0.817214       -0.528902      0.00924588     -0.00190057     4.99978e-06     3.50422e-05     3.03906e-06     2.40631e-05
                     0.00918434     -0.00190751        0.312621       -0.932495     1.26489e-06    -1.76743e-06    -6.30227e-08    -1.44308e-07
                    4.76204e-06     3.49712e-05     6.45046e-07    -7.31519e-07       -0.633841        0.569423     1.07336e-07    -6.29012e-08
                    3.19698e-06     2.40108e-05     6.35629e-07    -2.49725e-08     5.57992e-07     2.42824e-07       -0.630749        0.568934
     4.576e+07        -0.821588        -0.52216      0.00925993     -0.00197507     5.22818e-06     3.51492e-05     3.19228e-06     2.41269e-05
                     0.00919806     -0.00198172        0.306376       -0.934554     1.25206e-06    -1.78038e-06    -5.83401e-08    -1.41137e-07
                    4.98869e-06     3.50746e-05     6.34354e-07    -7.38197e-07       -0.631321        0.572153     1.09533e-07    -6.24324e-08
                    3.35139e-06     2.40757e-05     6.38191e-07    -3.17198e-08     5.57879e-07     2.38011e-07        -0.62823        0.571646
     4.578e+07        -0.825911       -0.515374       0.0092735     -0.00204999     5.45812e-06     3.52554e-05      3.3464e-06     2.41901e-05
                      0.0092113     -0.00205634        0.300112       -0.936571     1.23908e-06    -1.79318e-06     -5.3551e-08    -1.38057e-07
                    5.21682e-06     3.51773e-05     6.23583e-07    -7.44771e-07       -0.628789        0.574869     1.11693e-07    -6.20206e-08
                    3.50673e-06     2.41401e-05     6.40674e-07    -3.85138e-08     5.57652e-07     2.33203e-07       -0.625698        0.574344
      4.58e+07        -0.830183       -0.508544      0.00928656     -0.00212533     5.68961e-06     3.53607e-05     3.50142e-06     2.42528e-05
                     0.00922403     -0.00213137         0.29383       -0.938546     1.22596e-06    -1.80583e-06    -4.86567e-08    -1.35069e-07
                    5.44644e-06     3.52792e-05     6.12735e-07    -7.51241e-07       -0.626244        0.577572     1.13815e-07    -6.16647e-08
                      3.663e-06     2.42039e-05     6.43077e-07    -4.53533e-08      5.5731e-07     2.28402e-07       -0.623154        0.577029
     4.582e+07        -0.834404        -0.50167      0.00929912     -0.00220108     5.92264e-06     3.54652e-05     3.65735e-06     2.43149e-05
                     0.00923625     -0.00220681        0.287529       -0.940478     1.21269e-06    -1.81831e-06    -4.36588e-08    -1.32177e-07
                    5.67756e-06     3.53803e-05     6.01812e-07    -7.57604e-07       -0.623687        0.580261     1.15898e-07    -6.13636e-08
                    3.82021e-06     2.42672e-05     6.45398e-07     -5.2237e-08     5.56853e-07     2.23611e-07       -0.620598        0.579701
     4.584e+07        -0.838572       -0.494753      0.00931117     -0.00227723     6.15724e-06     3.55687e-05     3.81419e-06     2.43764e-05
                     0.00924796     -0.00228265        0.281211       -0.942368     1.19928e-06    -1.83063e-06    -3.85589e-08    -1.29382e-07
                    5.91019e-06     3.54806e-05     5.90816e-07     -7.6386e-07       -0.621117        0.582937      1.1794e-07    -6.11164e-08
                    3.97836e-06     2.43298e-05     6.47638e-07    -5.91638e-08     5.56283e-07     2.18831e-07        -0.61803         0.58236
     4.586e+07        -0.842688       -0.487792       0.0093227      -0.0023538      6.3934e-06     3.56714e-05     3.97196e-06     2.44373e-05
                     0.00925915      -0.0023589        0.274876       -0.944216     1.18572e-06    -1.84279e-06    -3.33587e-08    -1.26688e-07
                    6.14433e-06     3.55802e-05     5.79749e-07    -7.70006e-07       -0.618536          0.5856      1.1994e-07    -6.09219e-08
                    4.13747e-06     2.43919e-05     6.49795e-07    -6.61323e-08     5.55599e-07     2.14066e-07       -0.615449        0.585004
     4.588e+07        -0.846751       -0.480788       0.0093337     -0.00243078     6.63114e-06     3.57731e-05     4.13064e-06     2.44976e-05
                     0.00926981     -0.00243555        0.268523        -0.94602     1.17203e-06    -1.85478e-06    -2.80597e-08    -1.24096e-07
                       6.38e-06     3.56788e-05     5.68612e-07    -7.76043e-07       -0.615942        0.588249     1.21898e-07    -6.07789e-08
                    4.29753e-06     2.44534e-05     6.51869e-07    -7.31414e-08     5.54803e-07     2.09318e-07       -0.612857        0.587636
      4.59e+07        -0.850761       -0.473743      0.00934418     -0.00250815     6.87045e-06     3.58738e-05     4.29026e-06     2.45573e-05
                     0.00927994     -0.00251259        0.262154       -0.947781     1.15821e-06    -1.86661e-06    -2.26638e-08    -1.21609e-07
                    6.61719e-06     3.57767e-05     5.57408e-07    -7.81968e-07       -0.613337        0.590885     1.23813e-07    -6.06864e-08
                    4.45855e-06     2.45143e-05      6.5386e-07    -8.01898e-08     5.53895e-07     2.04589e-07       -0.610253        0.590254
     4.592e+07        -0.854716       -0.466655      0.00935411     -0.00258593     7.11134e-06     3.59737e-05     4.45081e-06     2.46164e-05
                     0.00928953     -0.00259004        0.255768         -0.9495     1.14425e-06    -1.87827e-06    -1.71728e-08    -1.19228e-07
                    6.85593e-06     3.58737e-05     5.46138e-07    -7.87781e-07       -0.610719        0.593506     1.25683e-07    -6.06432e-08
                    4.62053e-06     2.45746e-05     6.55766e-07    -8.72761e-08     5.52876e-07     1.99883e-07       -0.607637        0.592858
     4.594e+07        -0.858616       -0.459525       0.0093635     -0.00266411     7.35382e-06     3.60725e-05      4.6123e-06     2.46749e-05
                     0.00929857     -0.00266787        0.249366       -0.951174     1.13015e-06    -1.88976e-06    -1.15884e-08    -1.16957e-07
                    7.09621e-06     3.59699e-05     5.34805e-07     -7.9348e-07        -0.60809        0.596115     1.27507e-07     -6.0648e-08
                    4.78348e-06     2.46342e-05     6.57587e-07    -9.43992e-08     5.51747e-07     1.95202e-07       -0.605009        0.595448
     4.596e+07        -0.862461       -0.452354      0.00937235     -0.00274269      7.5979e-06     3.61704e-05     4.77472e-06     2.47327e-05
                     0.00930706      -0.0027461        0.242949       -0.952805     1.11593e-06    -1.90107e-06    -5.91252e-09    -1.14797e-07
                    7.33806e-06     3.60652e-05      5.2341e-07    -7.99064e-07       -0.605449        0.598709     1.29285e-07    -6.06997e-08
                    4.94741e-06     2.46932e-05     6.59323e-07    -1.01558e-07     5.50509e-07     1.90548e-07        -0.60237        0.598025
     4.598e+07         -0.86625       -0.445142      0.00938063     -0.00282166     7.84358e-06     3.62673e-05      4.9381e-06     2.47899e-05
                     0.00931499     -0.00282472        0.236516       -0.954393     1.10159e-06    -1.91221e-06    -1.47135e-10    -1.12751e-07
                    7.58146e-06     3.61596e-05     5.11956e-07    -8.04532e-07       -0.602797         0.60129     1.31016e-07     -6.0797e-08
                    5.11231e-06     2.47516e-05     6.60973e-07     -1.0875e-07     5.49162e-07     1.85924e-07       -0.599719        0.600588
       4.6e+07        -0.869983        -0.43789      0.00938835     -0.00290102     8.09086e-06     3.63632e-05     5.10243e-06     2.48465e-05
                     0.00932236     -0.00290372        0.230068       -0.955936     1.08712e-06    -1.92318e-06     5.70579e-09     -1.1082e-07
                    7.82644e-06     3.62531e-05     5.00444e-07    -8.09883e-07       -0.600133        0.603856     1.32699e-07    -6.09387e-08
                     5.2782e-06     2.48094e-05     6.62537e-07    -1.15976e-07     5.47707e-07     1.81332e-07       -0.597057        0.603137
     4.602e+07        -0.873659       -0.430598      0.00939549     -0.00298077     8.33976e-06     3.64581e-05     5.26772e-06     2.49024e-05
                     0.00932915      -0.0029831        0.223605       -0.957435     1.07253e-06    -1.93397e-06     1.16442e-08    -1.09008e-07
                    8.07301e-06     3.63457e-05     4.88876e-07    -8.15117e-07       -0.597458        0.606409     1.34332e-07    -6.11235e-08
                    5.44508e-06     2.48664e-05     6.64013e-07    -1.23233e-07     5.46147e-07     1.76776e-07       -0.594384        0.605672
     4.604e+07        -0.877278       -0.423266      0.00940207      -0.0030609     8.59029e-06      3.6552e-05     5.43396e-06     2.49576e-05
                     0.00933537     -0.00306286        0.217128        -0.95889     1.05782e-06    -1.94458e-06     1.76661e-08    -1.07315e-07
                    8.32116e-06     3.64374e-05     4.77255e-07    -8.20231e-07       -0.594772        0.608947     1.35916e-07    -6.13501e-08
                    5.61295e-06     2.49228e-05     6.65403e-07    -1.30521e-07     5.44481e-07     1.72256e-07         -0.5917        0.608193
     4.606e+07        -0.880838       -0.415896      0.00940805     -0.00314142     8.84243e-06     3.66448e-05     5.60118e-06     2.50122e-05
                       0.009341       -0.003143        0.210636         -0.9603       1.043e-06    -1.95502e-06     2.37693e-08    -1.05744e-07
                    8.57091e-06     3.65281e-05     4.65582e-07    -8.25225e-07       -0.592074        0.611472     1.37449e-07    -6.16172e-08
                    5.78182e-06     2.49786e-05     6.66704e-07    -1.37837e-07      5.4271e-07     1.67776e-07       -0.589004          0.6107
     4.608e+07         -0.88434       -0.408486      0.00941345     -0.00322232     9.09621e-06     3.67365e-05     5.76936e-06     2.50661e-05
                     0.00934603     -0.00322351        0.204131       -0.961666     1.02806e-06    -1.96527e-06     2.99516e-08    -1.04297e-07
                    8.82227e-06     3.66179e-05     4.53861e-07    -8.30099e-07       -0.589365        0.613983     1.38931e-07    -6.19234e-08
                    5.95169e-06     2.50336e-05     6.67917e-07    -1.45181e-07     5.40837e-07     1.63338e-07       -0.586298        0.613193
      4.61e+07        -0.887784       -0.401038      0.00941825     -0.00330359     9.35163e-06     3.68272e-05     5.93852e-06     2.51193e-05
                     0.00935047     -0.00330438        0.197613       -0.962986     1.01301e-06    -1.97534e-06     3.62109e-08    -1.02976e-07
                    9.07525e-06     3.67067e-05     4.42092e-07    -8.34851e-07       -0.586646        0.616479     1.40361e-07    -6.22674e-08
                    6.12257e-06     2.50879e-05     6.69042e-07    -1.52551e-07     5.38862e-07     1.58945e-07        -0.58358        0.615672
     4.612e+07        -0.891167       -0.393552      0.00942244     -0.00338523     9.60869e-06     3.69168e-05     6.10866e-06     2.51718e-05
                     0.00935431     -0.00338563        0.191082       -0.964262     9.97855e-07    -1.98522e-06     4.25448e-08    -1.01783e-07
                    9.32985e-06     3.67945e-05     4.30278e-07    -8.39481e-07       -0.583915        0.618961     1.41738e-07    -6.26479e-08
                    6.29446e-06     2.51415e-05     6.70078e-07    -1.59947e-07     5.36787e-07     1.54598e-07       -0.580852        0.618136
     4.614e+07        -0.894491       -0.386029      0.00942603     -0.00346724      9.8674e-06     3.70053e-05     6.27979e-06     2.52235e-05
                     0.00935753     -0.00346723        0.184538       -0.965493     9.82594e-07    -1.99492e-06     4.89511e-08    -1.00719e-07
                    9.58608e-06     3.68814e-05     4.18421e-07    -8.43987e-07       -0.581174        0.621429     1.43062e-07    -6.30634e-08
                    6.46736e-06     2.51944e-05     6.71024e-07    -1.67365e-07     5.34612e-07     1.50301e-07       -0.578114        0.620586
     4.616e+07        -0.897754       -0.378469        0.009429     -0.00354962     1.01278e-05     3.70926e-05      6.4519e-06     2.52746e-05
                     0.00936014      -0.0035492        0.177982       -0.966678     9.67231e-07    -2.00444e-06     5.54273e-08    -9.97879e-08
                    9.84395e-06     3.69672e-05     4.06523e-07     -8.4837e-07       -0.578422        0.623882     1.44332e-07    -6.35125e-08
                    6.64129e-06     2.52466e-05     6.71881e-07    -1.74807e-07      5.3234e-07     1.46055e-07       -0.575364        0.623022
     4.618e+07        -0.900957       -0.370873      0.00943134     -0.00363236     1.03898e-05     3.71788e-05     6.62501e-06     2.53249e-05
                     0.00936212     -0.00363152        0.171413       -0.967818     9.51768e-07    -2.01376e-06     6.19712e-08    -9.89898e-08
                    1.01035e-05      3.7052e-05     3.94587e-07    -8.52629e-07        -0.57566        0.626321     1.45547e-07     -6.3994e-08
                    6.81624e-06      2.5298e-05     6.72648e-07    -1.82269e-07     5.29972e-07     1.41863e-07       -0.572605        0.625444
      4.62e+07        -0.904097       -0.363241      0.00943306     -0.00371546     1.06535e-05     3.72639e-05     6.79911e-06     2.53745e-05
                     0.00936347     -0.00371419        0.164834       -0.968913     9.36208e-07     -2.0229e-06     6.85802e-08     -9.8327e-08
                    1.03646e-05     3.71357e-05     3.82615e-07    -8.56762e-07       -0.572887        0.628746     1.46708e-07    -6.45062e-08
                    6.99223e-06     2.53487e-05     6.73325e-07    -1.89751e-07      5.2751e-07     1.37726e-07       -0.569835        0.627851
     4.622e+07        -0.907176       -0.355573      0.00943414     -0.00379891     1.09189e-05     3.73478e-05     6.97422e-06     2.54233e-05
                     0.00936419      -0.0037972        0.158243       -0.969962     9.20555e-07    -2.03185e-06     7.52519e-08    -9.78012e-08
                    1.06275e-05     3.72184e-05     3.70609e-07     -8.6077e-07       -0.570104        0.631156     1.47813e-07    -6.50478e-08
                    7.16924e-06     2.53986e-05     6.73911e-07    -1.97251e-07     5.24954e-07     1.33648e-07       -0.567054        0.630244
     4.624e+07        -0.910192       -0.347871      0.00943457     -0.00388271     1.11859e-05     3.74305e-05     7.15033e-06     2.54714e-05
                     0.00936426     -0.00388056        0.151641       -0.970965      9.0481e-07    -2.04061e-06     8.19837e-08    -9.74143e-08
                     1.0892e-05        3.73e-05     3.58571e-07    -8.64652e-07        -0.56731        0.633552     1.48861e-07    -6.56174e-08
                    7.34729e-06     2.54477e-05     6.74407e-07    -2.04768e-07     5.22307e-07      1.2963e-07       -0.564264        0.632622
     4.626e+07        -0.913145       -0.340134      0.00943436     -0.00396686     1.14546e-05      3.7512e-05     7.32746e-06     2.55186e-05
                     0.00936368     -0.00396426        0.145028       -0.971922     8.88976e-07    -2.04918e-06     8.87731e-08    -9.71677e-08
                    1.11582e-05     3.73805e-05     3.46503e-07    -8.68407e-07       -0.564507        0.635933     1.49854e-07    -6.62135e-08
                    7.52639e-06     2.54961e-05     6.74813e-07    -2.12301e-07      5.1957e-07     1.25674e-07       -0.561463        0.634986
     4.628e+07        -0.916035       -0.332363      0.00943349     -0.00405135      1.1725e-05     3.75922e-05     7.50559e-06     2.55651e-05
                     0.00936244      -0.0040483        0.138406       -0.972833     8.73057e-07    -2.05755e-06     9.56174e-08    -9.70632e-08
                     1.1426e-05     3.74599e-05     3.34408e-07    -8.72036e-07       -0.561693        0.638299      1.5079e-07    -6.68346e-08
                    7.70653e-06     2.55436e-05     6.75127e-07    -2.19848e-07     5.16746e-07     1.21783e-07       -0.558653        0.637335
      4.63e+07        -0.918861       -0.324559      0.00943196     -0.00413618     1.19971e-05     3.76713e-05     7.68475e-06     2.56108e-05
                     0.00936054     -0.00413266        0.131774       -0.973698     8.57055e-07    -2.06573e-06     1.02514e-07    -9.71023e-08
                    1.16956e-05     3.75381e-05     3.22288e-07    -8.75537e-07       -0.558869        0.640651     1.51668e-07    -6.74793e-08
                    7.88771e-06     2.55903e-05     6.75351e-07    -2.27408e-07     5.13835e-07     1.17959e-07       -0.555833         0.63967
     4.632e+07        -0.921622       -0.316722      0.00942975     -0.00422134     1.22709e-05      3.7749e-05     7.86492e-06     2.56557e-05
                     0.00935798     -0.00421735        0.125132       -0.974516     8.40974e-07    -2.07372e-06      1.0946e-07    -9.72866e-08
                    1.19669e-05     3.76152e-05     3.10145e-07     -8.7891e-07       -0.556036        0.642988     1.52489e-07     -6.8146e-08
                    8.06995e-06     2.56362e-05     6.75483e-07     -2.3498e-07      5.1084e-07     1.14203e-07       -0.553003        0.641989
     4.634e+07        -0.924319       -0.308852      0.00942688     -0.00430683     1.25465e-05     3.78255e-05     8.04612e-06     2.56997e-05
                     0.00935474     -0.00430236        0.118482       -0.975289     8.24815e-07    -2.08151e-06     1.16453e-07    -9.76175e-08
                    1.22399e-05     3.76911e-05     2.97982e-07    -8.82156e-07       -0.553193        0.645311     1.53252e-07    -6.88333e-08
                    8.25325e-06     2.56812e-05     6.75524e-07    -2.42562e-07     5.07762e-07     1.10517e-07       -0.550163        0.644295
     4.636e+07         -0.92695       -0.300951      0.00942332     -0.00439264     1.28237e-05     3.79007e-05     8.22836e-06      2.5743e-05
                     0.00935081     -0.00438769        0.111822       -0.976014     8.08582e-07    -2.08911e-06     1.23491e-07    -9.80964e-08
                    1.25146e-05     3.77659e-05       2.858e-07    -8.85273e-07        -0.55034        0.647619     1.53957e-07    -6.95397e-08
                     8.4376e-06     2.57254e-05     6.75474e-07    -2.50153e-07     5.04604e-07     1.06904e-07       -0.547314        0.646585
     4.638e+07        -0.929515       -0.293019      0.00941907     -0.00447878     1.31026e-05     3.79746e-05     8.41162e-06     2.57853e-05
                      0.0093462     -0.00447333        0.105155       -0.976693     7.92278e-07    -2.09651e-06     1.30569e-07    -9.87248e-08
                     1.2791e-05     3.78394e-05     2.73603e-07    -8.88262e-07       -0.547478        0.649912     1.54604e-07    -7.02637e-08
                    8.62302e-06     2.57687e-05     6.75333e-07    -2.57752e-07     5.01367e-07     1.03366e-07       -0.544456        0.648861
      4.64e+07        -0.932014       -0.285056      0.00941412     -0.00456523     1.33832e-05     3.80472e-05     8.59592e-06     2.58268e-05
                     0.00934089     -0.00455928       0.0984795       -0.977326     7.75905e-07    -2.10371e-06     1.37686e-07    -9.95039e-08
                    1.30691e-05     3.79117e-05     2.61391e-07    -8.91123e-07       -0.544607         0.65219     1.55193e-07    -7.10037e-08
                     8.8095e-06     2.58111e-05     6.75101e-07    -2.65357e-07     4.98054e-07     9.99033e-08       -0.541588        0.651122
     4.642e+07        -0.934446       -0.277063      0.00940848     -0.00465199     1.36656e-05     3.81184e-05     8.78126e-06     2.58674e-05
                     0.00933489     -0.00464553       0.0917967       -0.977911     7.59467e-07    -2.11072e-06     1.44839e-07    -1.00435e-07
                     1.3349e-05     3.79828e-05     2.49169e-07    -8.93855e-07       -0.541726        0.654453     1.55723e-07    -7.17584e-08
                    8.99705e-06     2.58527e-05     6.74777e-07    -2.72967e-07     4.94666e-07      9.6519e-08       -0.538711        0.653368
     4.644e+07        -0.936812        -0.26904      0.00940212     -0.00473905     1.39497e-05     3.81882e-05     8.96764e-06     2.59072e-05
                     0.00932817     -0.00473207       0.0851067        -0.97845     7.42967e-07    -2.11753e-06     1.52024e-07    -1.01519e-07
                    1.36306e-05     3.80526e-05     2.36937e-07    -8.96459e-07       -0.538836        0.656701     1.56194e-07    -7.25261e-08
                    9.18567e-06     2.58933e-05     6.74362e-07    -2.80581e-07     4.91206e-07     9.32144e-08       -0.535825        0.655599
     4.646e+07        -0.939109       -0.260989      0.00939506     -0.00482642     1.42355e-05     3.82566e-05     9.15507e-06      2.5946e-05
                     0.00932074     -0.00481891         0.07841       -0.978941     7.26407e-07    -2.12414e-06      1.5924e-07    -1.02758e-07
                     1.3914e-05     3.81211e-05     2.24699e-07    -8.98934e-07       -0.535937        0.658935     1.56606e-07    -7.33053e-08
                    9.37537e-06      2.5933e-05     6.73856e-07    -2.88197e-07     4.87675e-07     8.99914e-08        -0.53293        0.657815
     4.648e+07        -0.941339       -0.252909      0.00938727     -0.00491408     1.45231e-05     3.83237e-05     9.34354e-06      2.5984e-05
                      0.0093126     -0.00490604       0.0717069       -0.979386      7.0979e-07    -2.13055e-06     1.66482e-07    -1.04153e-07
                    1.41991e-05     3.81883e-05     2.12456e-07    -9.01281e-07       -0.533029        0.661154      1.5696e-07    -7.40946e-08
                    9.56614e-06     2.59717e-05     6.73258e-07    -2.95815e-07     4.84077e-07     8.68515e-08       -0.530026        0.660017
      4.65e+07          -0.9435       -0.244802      0.00937875     -0.00500203     1.48124e-05     3.83893e-05     9.53307e-06      2.6021e-05
                     0.00930372     -0.00499345       0.0649979       -0.979783      6.9312e-07    -2.13676e-06     1.73747e-07    -1.05704e-07
                     1.4486e-05     3.82541e-05     2.00211e-07    -9.03499e-07       -0.530112        0.663357     1.57255e-07    -7.48925e-08
                    9.75799e-06     2.60095e-05      6.7257e-07    -3.03432e-07     4.80412e-07     8.37964e-08       -0.527114        0.662203
     4.652e+07        -0.945592       -0.236667       0.0093695     -0.00509027     1.51034e-05     3.84534e-05     9.72365e-06      2.6057e-05
                     0.00929412     -0.00508114       0.0582833       -0.980134     6.76399e-07    -2.14277e-06     1.81034e-07    -1.07413e-07
                    1.47747e-05     3.83186e-05     1.87966e-07     -9.0559e-07       -0.527187        0.665546     1.57491e-07    -7.56973e-08
                    9.95092e-06     2.60464e-05     6.71791e-07    -3.11048e-07     4.76684e-07     8.08276e-08       -0.524193        0.664375
     4.654e+07        -0.947615       -0.228506      0.00935951     -0.00517878     1.53962e-05     3.85161e-05     9.91528e-06     2.60921e-05
                     0.00928378      -0.0051691       0.0515634       -0.980437      6.5963e-07    -2.14859e-06     1.88338e-07     -1.0928e-07
                    1.50651e-05     3.83818e-05     1.75723e-07    -9.07552e-07       -0.524253         0.66772     1.57669e-07    -7.65076e-08
                    1.01449e-05     2.60823e-05     6.70921e-07    -3.18661e-07     4.72895e-07     7.79467e-08       -0.521263        0.666531
     4.656e+07        -0.949568       -0.220319      0.00934878     -0.00526757     1.56907e-05     3.85773e-05      1.0108e-05     2.61262e-05
                     0.00927269     -0.00525732       0.0448388       -0.980692     6.42816e-07     -2.1542e-06     1.95657e-07    -1.11307e-07
                    1.53574e-05     3.84435e-05     1.63485e-07    -9.09387e-07        -0.52131        0.669878     1.57788e-07     -7.7322e-08
                      1.034e-05     2.61171e-05     6.69961e-07     -3.2627e-07     4.69046e-07     7.51551e-08       -0.518325        0.668673
     4.658e+07        -0.951451       -0.212107      0.00933729     -0.00535663      1.5987e-05      3.8637e-05     1.03017e-05     2.61594e-05
                     0.00926085      -0.0053458       0.0381096         -0.9809     6.25961e-07    -2.15961e-06     2.02987e-07    -1.13494e-07
                    1.56514e-05     3.85039e-05     1.51254e-07    -9.11095e-07       -0.518359        0.672022     1.57849e-07    -7.81388e-08
                    1.05362e-05      2.6151e-05      6.6891e-07    -3.33873e-07     4.65141e-07     7.24542e-08       -0.515378        0.670799
      4.66e+07        -0.953263        -0.20387      0.00932505     -0.00544595     1.62851e-05     3.86951e-05     1.04966e-05     2.61915e-05
                     0.00924826     -0.00543454       0.0313765       -0.981061     6.09066e-07    -2.16482e-06     2.10325e-07    -1.15842e-07
                    1.59471e-05     3.85628e-05     1.39032e-07    -9.12676e-07         -0.5154         0.67415     1.57852e-07    -7.89566e-08
                    1.07335e-05     2.61838e-05      6.6777e-07    -3.41471e-07     4.61182e-07     6.98454e-08       -0.512424        0.672911
     4.662e+07        -0.955004       -0.195609      0.00931204     -0.00553553     1.65849e-05     3.87517e-05     1.06924e-05     2.62227e-05
                     0.00923491     -0.00552353       0.0246397       -0.981174     5.92136e-07    -2.16984e-06     2.17669e-07    -1.18352e-07
                    1.62447e-05     3.86202e-05     1.26822e-07     -9.1413e-07       -0.512432        0.676264     1.57797e-07    -7.97739e-08
                    1.09318e-05     2.62156e-05     6.66539e-07     -3.4906e-07     4.57171e-07       6.733e-08       -0.509461        0.675007
     4.664e+07        -0.956675       -0.187325      0.00929826     -0.00562536     1.68864e-05     3.88067e-05     1.08894e-05     2.62528e-05
                     0.00922078     -0.00561276       0.0178996        -0.98124     5.75172e-07    -2.17465e-06     2.25015e-07    -1.21024e-07
                    1.65441e-05     3.86762e-05     1.14625e-07    -9.15459e-07       -0.509456        0.678362     1.57684e-07    -8.05893e-08
                    1.11313e-05     2.62463e-05     6.65219e-07     -3.5664e-07      4.5311e-07     6.49092e-08        -0.50649        0.677089
     4.666e+07        -0.958273       -0.179018       0.0092837     -0.00571543     1.71898e-05     3.88601e-05     1.10874e-05     2.62818e-05
                     0.00920589     -0.00570222       0.0111566       -0.981258     5.58179e-07    -2.17926e-06     2.32359e-07     -1.2386e-07
                    1.68453e-05     3.87306e-05     1.02444e-07    -9.16662e-07       -0.506473        0.680445     1.57514e-07    -8.14011e-08
                    1.13318e-05     2.62759e-05      6.6381e-07     -3.6421e-07     4.49003e-07     6.25843e-08       -0.503511        0.679155
     4.668e+07          -0.9598       -0.170689      0.00926836     -0.00580575     1.74948e-05     3.89119e-05     1.12865e-05     2.63098e-05
                     0.00919021     -0.00579192      0.00441105       -0.981228     5.41159e-07    -2.18367e-06     2.39699e-07    -1.26859e-07
                    1.71483e-05     3.87835e-05     9.02816e-08     -9.1774e-07       -0.503481        0.682513     1.57286e-07     -8.2208e-08
                    1.15335e-05     2.63045e-05     6.62312e-07    -3.71769e-07     4.44852e-07     6.03563e-08       -0.500525        0.681206
      4.67e+07        -0.961254       -0.162338      0.00925224     -0.00589629     1.78017e-05     3.89621e-05     1.14866e-05     2.63368e-05
                     0.00917375     -0.00588184     -0.00233657       -0.981151     5.24114e-07    -2.18789e-06     2.47031e-07    -1.30022e-07
                    1.74531e-05     3.88349e-05     7.81394e-08    -9.18694e-07       -0.500482        0.684566     1.57003e-07    -8.30085e-08
                    1.17362e-05     2.63319e-05     6.60725e-07    -3.79315e-07     4.40659e-07     5.82263e-08       -0.497531        0.683242
     4.672e+07        -0.962635       -0.153967      0.00923531     -0.00598706     1.81103e-05     3.90106e-05     1.16879e-05     2.63626e-05
                      0.0091565     -0.00597198     -0.00908592       -0.981026     5.07048e-07     -2.1919e-06     2.54353e-07     -1.3335e-07
                    1.77597e-05     3.88847e-05     6.60198e-08    -9.19524e-07       -0.497475        0.686604     1.56663e-07    -8.38012e-08
                      1.194e-05     2.63583e-05     6.59049e-07    -3.86847e-07     4.36426e-07     5.61953e-08       -0.494529        0.685263
     4.674e+07        -0.963943       -0.145575      0.00921759     -0.00607806     1.84207e-05     3.90574e-05     1.18902e-05     2.63873e-05
                     0.00913845     -0.00606233      -0.0158366       -0.980853     4.89964e-07    -2.19571e-06      2.6166e-07    -1.36842e-07
                    1.80682e-05     3.89329e-05     5.39249e-08    -9.20232e-07       -0.494461        0.688627     1.56267e-07    -8.45845e-08
                    1.21449e-05     2.63835e-05     6.57286e-07    -3.94364e-07     4.32158e-07     5.42643e-08        -0.49152        0.687269
     4.676e+07        -0.965177       -0.137165      0.00919906     -0.00616926     1.87329e-05     3.91025e-05     1.20935e-05     2.64109e-05
                     0.00911959     -0.00615289      -0.0225883       -0.980633     4.72864e-07    -2.19933e-06     2.68949e-07      -1.405e-07
                    1.83784e-05     3.89795e-05      4.1857e-08    -9.20817e-07       -0.491439        0.690634     1.55815e-07    -8.53572e-08
                    1.23509e-05     2.64075e-05     6.55436e-07    -4.01864e-07     4.27855e-07     5.24342e-08       -0.488504        0.689259
     4.678e+07        -0.966338       -0.128735      0.00917972     -0.00626067     1.90468e-05     3.91458e-05      1.2298e-05     2.64334e-05
                     0.00909993     -0.00624364      -0.0293405       -0.980365     4.55752e-07    -2.20274e-06     2.76217e-07    -1.44323e-07
                    1.86905e-05     3.90244e-05     2.98181e-08    -9.21281e-07        -0.48841        0.692626     1.55309e-07    -8.61176e-08
                     1.2558e-05     2.64303e-05     6.53498e-07    -4.09348e-07     4.23521e-07     5.07058e-08        -0.48548        0.691235
      4.68e+07        -0.967425       -0.120288      0.00915956     -0.00635229     1.93626e-05     3.91874e-05     1.25035e-05     2.64547e-05
                     0.00907946     -0.00633459      -0.0360928       -0.980048     4.38631e-07    -2.20596e-06     2.83461e-07    -1.48311e-07
                    1.90045e-05     3.90676e-05     1.78104e-08    -9.21625e-07       -0.485374        0.694604     1.54749e-07    -8.68645e-08
                    1.27662e-05      2.6452e-05     6.51473e-07    -4.16812e-07     4.19159e-07     4.90799e-08        -0.48245        0.693195
     4.682e+07        -0.968437       -0.111823      0.00913858      -0.0064441     1.96801e-05     3.92272e-05     1.27101e-05     2.64749e-05
                     0.00905816     -0.00642572       -0.042845       -0.979685     4.21503e-07    -2.20898e-06     2.90678e-07    -1.52465e-07
                    1.93202e-05     3.91092e-05     5.83595e-09     -9.2185e-07        -0.48233        0.696566     1.54135e-07    -8.75965e-08
                    1.29754e-05     2.64725e-05     6.49363e-07    -4.24258e-07     4.14771e-07     4.75571e-08       -0.479412         0.69514
     4.684e+07        -0.969374       -0.103342      0.00911677     -0.00653609     1.99993e-05     3.92652e-05     1.29177e-05     2.64938e-05
                     0.00903604     -0.00651703      -0.0495966       -0.979273     4.04371e-07    -2.21181e-06     2.97863e-07    -1.56785e-07
                    1.96378e-05      3.9149e-05    -6.10308e-09    -9.21956e-07        -0.47928        0.698512     1.53468e-07    -8.83121e-08
                    1.31858e-05     2.64917e-05     6.47166e-07    -4.31682e-07     4.10359e-07     4.61382e-08       -0.476367         0.69707
     4.686e+07        -0.970237      -0.0948443      0.00909413     -0.00662826     2.03204e-05     3.93014e-05     1.31265e-05     2.65116e-05
                     0.00901309     -0.00660852      -0.0563471       -0.978813     3.87238e-07    -2.21443e-06     3.05015e-07     -1.6127e-07
                    1.99573e-05     3.91871e-05    -1.80047e-08    -9.21944e-07       -0.476222        0.700444     1.52749e-07    -8.90101e-08
                    1.33972e-05     2.65097e-05     6.44885e-07    -4.39084e-07     4.05928e-07     4.48237e-08       -0.473316        0.698985
     4.688e+07        -0.971023      -0.0863317      0.00907064     -0.00672061     2.06432e-05     3.93357e-05     1.33363e-05     2.65281e-05
                      0.0089893     -0.00670016      -0.0630963       -0.978306     3.70106e-07    -2.21687e-06     3.12128e-07    -1.65921e-07
                    2.02785e-05     3.92233e-05    -2.98668e-08    -9.21816e-07       -0.473158         0.70236     1.51978e-07     -8.9689e-08
                    1.36098e-05     2.65264e-05     6.42518e-07    -4.46464e-07     4.01479e-07     4.36141e-08       -0.470257        0.700885
      4.69e+07        -0.971734      -0.0778047      0.00904631     -0.00681312     2.09678e-05     3.93681e-05     1.35472e-05     2.65434e-05
                     0.00896468     -0.00679197      -0.0698438       -0.977751      3.5298e-07     -2.2191e-06     3.19201e-07    -1.70737e-07
                    2.06016e-05     3.92578e-05    -4.16874e-08    -9.21573e-07       -0.470087        0.704262     1.51156e-07    -9.03476e-08
                    1.38234e-05     2.65419e-05     6.40067e-07    -4.53819e-07     3.97015e-07     4.25099e-08       -0.467192         0.70277
     4.692e+07         -0.97237      -0.0692638      0.00902113      -0.0069058     2.12942e-05     3.93987e-05     1.37591e-05     2.65574e-05
                      0.0089392     -0.00688392      -0.0765891       -0.977148     3.35861e-07    -2.22114e-06     3.26228e-07    -1.75718e-07
                    2.09266e-05     3.92905e-05    -5.34646e-08    -9.21216e-07        -0.46701        0.706148     1.50284e-07    -9.09845e-08
                    1.40381e-05      2.6556e-05     6.37533e-07    -4.61149e-07     3.92539e-07     4.15114e-08       -0.464121        0.704639
     4.694e+07        -0.972928        -0.06071      0.00899509     -0.00699862     2.16224e-05     3.94273e-05     1.39721e-05     2.65702e-05
                     0.00891288     -0.00697602      -0.0833318       -0.976497     3.18753e-07    -2.22299e-06     3.33208e-07    -1.80863e-07
                    2.12534e-05     3.93213e-05    -6.51963e-08    -9.20746e-07       -0.463926        0.708018     1.49362e-07    -9.15985e-08
                    1.42539e-05     2.65688e-05     6.34915e-07    -4.68453e-07     3.88053e-07      4.0619e-08       -0.461043        0.706493
     4.696e+07        -0.973411      -0.0521438      0.00896819     -0.00709159     2.19523e-05     3.94539e-05     1.41862e-05     2.65816e-05
                     0.00888569     -0.00706825      -0.0900717       -0.975799     3.01657e-07    -2.22465e-06     3.40137e-07    -1.86173e-07
                     2.1582e-05     3.93502e-05    -7.68806e-08    -9.20164e-07       -0.460835        0.709874     1.48392e-07    -9.21882e-08
                    1.44707e-05     2.65804e-05     6.32215e-07     -4.7573e-07     3.83561e-07      3.9833e-08       -0.457959        0.708332
     4.698e+07        -0.973816       -0.043566      0.00894042     -0.00718469      2.2284e-05     3.94786e-05     1.44013e-05     2.65918e-05
                     0.00885765     -0.00716061      -0.0968082       -0.975052     2.84578e-07    -2.22611e-06     3.47011e-07    -1.91647e-07
                    2.19125e-05     3.93771e-05    -8.85157e-08    -9.19472e-07       -0.457739        0.711715     1.47374e-07    -9.27525e-08
                    1.46887e-05     2.65905e-05     6.29433e-07    -4.82979e-07     3.79066e-07     3.91535e-08       -0.454869        0.710156
       4.7e+07        -0.974145      -0.0349773      0.00891178     -0.00727792     2.26175e-05     3.95012e-05     1.46175e-05     2.66006e-05
                     0.00882874     -0.00725309       -0.103541       -0.974258     2.67517e-07    -2.22739e-06     3.53827e-07    -1.97284e-07
                    2.22448e-05     3.94022e-05      -1.001e-07    -9.18671e-07       -0.454636         0.71354     1.46309e-07    -9.32901e-08
                    1.49077e-05     2.65993e-05     6.26569e-07    -4.90198e-07      3.7457e-07     3.85806e-08       -0.451773        0.711965
     4.702e+07        -0.974396      -0.0263786      0.00888226     -0.00737127     2.29527e-05     3.95219e-05     1.48348e-05     2.66081e-05
                     0.00879896     -0.00734568        -0.11027       -0.973417     2.50477e-07    -2.22847e-06     3.60581e-07    -2.03084e-07
                    2.25789e-05     3.94253e-05    -1.11631e-07    -9.17762e-07       -0.451527         0.71535     1.45198e-07    -9.37998e-08
                    1.51277e-05     2.66067e-05     6.23624e-07    -4.97388e-07     3.70076e-07     3.81144e-08       -0.448671        0.713759
     4.704e+07        -0.974569      -0.0177705      0.00885186     -0.00746474     2.32897e-05     3.95404e-05     1.50531e-05     2.66142e-05
                      0.0087683     -0.00743838       -0.116994       -0.972528     2.33461e-07    -2.22937e-06     3.67271e-07    -2.09047e-07
                    2.29149e-05     3.94464e-05    -1.23107e-07    -9.16747e-07       -0.448412        0.717146     1.44042e-07    -9.42804e-08
                    1.53489e-05     2.66127e-05       6.206e-07    -5.04546e-07     3.65586e-07     3.77548e-08       -0.445562        0.715538
     4.706e+07        -0.974665     -0.00915384      0.00882057     -0.00755831     2.36285e-05     3.95569e-05     1.52725e-05     2.66189e-05
                     0.00873676     -0.00753118       -0.123714       -0.971591     2.16472e-07    -2.23007e-06     3.73892e-07     -2.1517e-07
                    2.32528e-05     3.94654e-05    -1.34526e-07    -9.15627e-07       -0.445291        0.718926     1.42841e-07    -9.47308e-08
                    1.55711e-05     2.66173e-05     6.17496e-07    -5.11672e-07     3.61105e-07     3.75019e-08       -0.442448        0.717301
     4.708e+07        -0.974683    -0.000529316      0.00878839     -0.00765198      2.3969e-05     3.95713e-05     1.54929e-05     2.66223e-05
                     0.00870433     -0.00762406       -0.130428       -0.970606     1.99512e-07     -2.2306e-06     3.80442e-07    -2.21454e-07
                    2.35925e-05     3.94824e-05    -1.45888e-07    -9.14404e-07       -0.442165         0.72069     1.41598e-07    -9.51498e-08
                    1.57943e-05     2.66204e-05     6.14313e-07    -5.18765e-07     3.56634e-07     3.73554e-08       -0.439329         0.71905
      4.71e+07        -0.974623      0.00810229      0.00875531     -0.00774574     2.43113e-05     3.95835e-05     1.57143e-05     2.66242e-05
                     0.00867101     -0.00771703       -0.137137       -0.969574     1.82584e-07    -2.23093e-06     3.86916e-07    -2.27898e-07
                     2.3934e-05     3.94974e-05    -1.57189e-07     -9.1308e-07       -0.439033         0.72244     1.40312e-07    -9.55363e-08
                    1.60186e-05     2.66221e-05     6.11051e-07    -5.25824e-07     3.52176e-07     3.73151e-08       -0.436203        0.720783
     4.712e+07        -0.974484       0.0167402      0.00872133     -0.00783958     2.46554e-05     3.95936e-05     1.59368e-05     2.66247e-05
                      0.0086368     -0.00781007       -0.143839       -0.968495     1.65691e-07    -2.23109e-06     3.93313e-07    -2.34501e-07
                    2.42773e-05     3.95102e-05    -1.68429e-07    -9.11655e-07       -0.435895        0.724175     1.38986e-07    -9.58893e-08
                     1.6244e-05     2.66223e-05     6.07713e-07    -5.32848e-07     3.47734e-07     3.73808e-08       -0.433073        0.722502
     4.714e+07        -0.974267       0.0253837      0.00868645      -0.0079335     2.50012e-05     3.96015e-05     1.61604e-05     2.66237e-05
                     0.00860168     -0.00790317       -0.150536       -0.967368     1.48834e-07    -2.23106e-06     3.99627e-07    -2.41261e-07
                    2.46225e-05     3.95209e-05    -1.79605e-07    -9.10132e-07       -0.432752        0.725895     1.37619e-07    -9.62076e-08
                    1.64704e-05      2.6621e-05     6.04297e-07    -5.39837e-07     3.43312e-07      3.7552e-08       -0.429937        0.724205
     4.716e+07         -0.97397       0.0340319      0.00865065     -0.00802748     2.53488e-05     3.96072e-05      1.6385e-05     2.66212e-05
                     0.00856567     -0.00799633       -0.157225       -0.966194     1.32017e-07    -2.23085e-06     4.05856e-07    -2.48179e-07
                    2.49695e-05     3.95294e-05    -1.90717e-07    -9.08512e-07       -0.429603        0.727599     1.36214e-07    -9.64904e-08
                    1.66978e-05     2.66181e-05     6.00806e-07    -5.46789e-07     3.38911e-07     3.78284e-08       -0.426795        0.725893
     4.718e+07        -0.973595       0.0426842      0.00861394     -0.00812151     2.56981e-05     3.96106e-05     1.66106e-05     2.66173e-05
                     0.00852874     -0.00808954       -0.163908       -0.964972     1.15242e-07    -2.23045e-06     4.11997e-07    -2.55251e-07
                    2.53184e-05     3.95357e-05    -2.01762e-07    -9.06796e-07       -0.426449        0.729289     1.34771e-07    -9.67364e-08
                    1.69263e-05     2.66138e-05     5.97239e-07    -5.53703e-07     3.34535e-07     3.82094e-08       -0.423648        0.727567
      4.72e+07        -0.973141       0.0513396       0.0085763      -0.0082156     2.60491e-05     3.96117e-05     1.68372e-05     2.66118e-05
                      0.0084909      -0.0081828       -0.170583       -0.963704     9.85107e-08    -2.22989e-06     4.18046e-07    -2.62479e-07
                    2.56691e-05     3.95398e-05    -2.12739e-07    -9.04988e-07        -0.42329        0.730964     1.33291e-07    -9.69449e-08
                    1.71557e-05     2.66079e-05     5.93597e-07     -5.6058e-07     3.30186e-07     3.86945e-08       -0.420497        0.729225
     4.722e+07        -0.972607       0.0599975      0.00853775     -0.00830972     2.64019e-05     3.96106e-05     1.70648e-05     2.66048e-05
                     0.00845214     -0.00827608        -0.17725       -0.962388     8.18267e-08    -2.22914e-06        4.24e-07    -2.69859e-07
                    2.60215e-05     3.95416e-05    -2.23647e-07    -9.03088e-07       -0.420125        0.732623     1.31776e-07    -9.71148e-08
                    1.73862e-05     2.66004e-05     5.89881e-07    -5.67417e-07     3.25868e-07     3.92831e-08        -0.41734        0.730869
     4.724e+07        -0.971994       0.0686571      0.00849826     -0.00840388     2.67564e-05     3.96071e-05     1.72935e-05     2.65963e-05
                     0.00841246     -0.00836938       -0.183909       -0.961025     6.51919e-08    -2.22822e-06     4.29856e-07    -2.77391e-07
                    2.63758e-05     3.95411e-05    -2.34484e-07    -9.01098e-07       -0.416956        0.734268     1.30226e-07    -9.72453e-08
                    1.76178e-05     2.65913e-05     5.86093e-07    -5.74215e-07     3.21583e-07     3.99745e-08       -0.414178        0.732497
     4.726e+07        -0.971302       0.0773175      0.00845784     -0.00849806     2.71127e-05     3.96013e-05     1.75232e-05     2.65862e-05
                     0.00837186     -0.00846271        -0.19056       -0.959615     4.86087e-08    -2.22712e-06      4.3561e-07    -2.85073e-07
                     2.6732e-05     3.95383e-05    -2.45249e-07     -8.9902e-07       -0.413782        0.735898     1.28644e-07    -9.73354e-08
                    1.78503e-05     2.65806e-05     5.82232e-07    -5.80972e-07     3.17333e-07     4.07679e-08       -0.411012        0.734111
     4.728e+07        -0.970529       0.0859779      0.00841648     -0.00859225     2.74706e-05      3.9593e-05     1.77538e-05     2.65745e-05
                     0.00833032     -0.00855603       -0.197201       -0.958158     3.20793e-08    -2.22586e-06     4.41259e-07    -2.92905e-07
                    2.70899e-05     3.95332e-05     -2.5594e-07    -8.96856e-07       -0.410603        0.737513     1.27029e-07    -9.73843e-08
                    1.80838e-05     2.65682e-05     5.78299e-07    -5.87688e-07     3.13122e-07     4.16624e-08        -0.40784         0.73571
      4.73e+07        -0.969677       0.0946377      0.00837418     -0.00868645     2.78303e-05     3.95824e-05     1.79855e-05     2.65612e-05
                     0.00828785     -0.00864936       -0.203834       -0.956654     1.56061e-08    -2.22442e-06       4.468e-07    -3.00883e-07
                    2.74496e-05     3.95257e-05    -2.66557e-07    -8.94608e-07       -0.407419        0.739113     1.25384e-07    -9.73911e-08
                    1.83183e-05     2.65542e-05     5.74295e-07    -5.94361e-07     3.08952e-07     4.26573e-08       -0.404664        0.737294
     4.732e+07        -0.968745        0.103296      0.00833093     -0.00878064     2.81917e-05     3.95693e-05     1.82182e-05     2.65462e-05
                     0.00824445     -0.00874267       -0.210456       -0.955104    -8.08735e-10    -2.22282e-06      4.5223e-07    -3.09008e-07
                    2.78111e-05     3.95158e-05    -2.77098e-07    -8.92278e-07       -0.404231        0.740698      1.2371e-07    -9.73552e-08
                    1.85538e-05     2.65386e-05     5.70222e-07    -6.00993e-07     3.04827e-07     4.37514e-08       -0.401484        0.738863
     4.734e+07        -0.967733        0.111952      0.00828674     -0.00887482     2.85547e-05     3.95538e-05     1.84518e-05     2.65296e-05
                      0.0082001     -0.00883596       -0.217069       -0.953506     -1.7163e-08    -2.22104e-06     4.57546e-07    -3.17276e-07
                    2.81744e-05     3.95034e-05    -2.87561e-07    -8.89868e-07       -0.401038        0.742269     1.22008e-07    -9.72757e-08
                    1.87902e-05     2.65212e-05     5.66079e-07     -6.0758e-07     3.00748e-07     4.49438e-08       -0.398299        0.740417
     4.736e+07         -0.96664        0.120605      0.00824159     -0.00896898     2.89195e-05     3.95358e-05     1.86864e-05     2.65114e-05
                     0.00815481     -0.00892922       -0.223671       -0.951863    -3.34546e-08    -2.21911e-06     4.62744e-07    -3.25686e-07
                    2.85395e-05     3.94886e-05    -2.97946e-07    -8.87379e-07        -0.39784        0.743824     1.20279e-07    -9.71519e-08
                    1.90277e-05     2.65021e-05     5.61867e-07    -6.14124e-07     2.96718e-07     4.62333e-08       -0.395109        0.741957
     4.738e+07        -0.965468        0.129254      0.00819548      -0.0090631      2.9286e-05     3.95152e-05      1.8922e-05     2.64914e-05
                     0.00810857     -0.00902245       -0.230262       -0.950172    -4.96814e-08    -2.21701e-06     4.67821e-07    -3.34237e-07
                    2.89064e-05     3.94713e-05    -3.08251e-07    -8.84814e-07       -0.394638        0.745365     1.18525e-07    -9.69831e-08
                    1.92661e-05     2.64813e-05     5.57588e-07    -6.20623e-07      2.9274e-07     4.76189e-08       -0.391916        0.743481
      4.74e+07        -0.964215        0.137898      0.00814842     -0.00915719     2.96541e-05     3.94921e-05     1.91585e-05     2.64698e-05
                     0.00806137     -0.00911562       -0.236843       -0.948436    -6.58412e-08    -2.21474e-06     4.72774e-07    -3.42927e-07
                     2.9275e-05     3.94514e-05    -3.18476e-07    -8.82176e-07       -0.391432        0.746891     1.16747e-07    -9.67686e-08
                    1.95054e-05     2.64588e-05     5.53242e-07    -6.27077e-07     2.88817e-07     4.90992e-08       -0.388718        0.744992
     4.742e+07        -0.962881        0.146536      0.00810039     -0.00925123     3.00239e-05     3.94664e-05      1.9396e-05     2.64464e-05
                     0.00801323     -0.00920874       -0.243411       -0.946653    -8.19321e-08    -2.21232e-06       4.776e-07    -3.51753e-07
                    2.96454e-05      3.9429e-05     -3.2862e-07    -8.79465e-07       -0.388221        0.748403     1.14947e-07     -9.6508e-08
                    1.97457e-05     2.64344e-05      5.4883e-07    -6.33485e-07     2.84952e-07     5.06729e-08       -0.385516        0.746487
     4.744e+07        -0.961467        0.155169      0.00805139      -0.0093452     3.03954e-05      3.9438e-05     1.96344e-05     2.64213e-05
                     0.00796412      -0.0093018       -0.249968       -0.944824    -9.79521e-08    -2.20974e-06     4.82297e-07    -3.60714e-07
                    3.00175e-05     3.94039e-05    -3.38681e-07    -8.76684e-07       -0.385007        0.749899     1.13125e-07    -9.62004e-08
                    1.99869e-05     2.64083e-05     5.44353e-07    -6.39846e-07     2.81146e-07     5.23388e-08        -0.38231        0.747968
     4.746e+07        -0.959973        0.163794      0.00800142     -0.00943911     3.07685e-05     3.94071e-05     1.98738e-05     2.63944e-05
                     0.00791405     -0.00939477       -0.256513       -0.942948    -1.13899e-07    -2.20701e-06     4.86861e-07    -3.69807e-07
                    3.03914e-05     3.93763e-05    -3.48659e-07    -8.73835e-07       -0.381788        0.751382     1.11283e-07    -9.58455e-08
                     2.0229e-05     2.63804e-05     5.39811e-07    -6.46161e-07     2.77402e-07     5.40953e-08       -0.379099        0.749434
     4.748e+07        -0.958398        0.172411      0.00795047     -0.00953295     3.11432e-05     3.93735e-05      2.0114e-05     2.63657e-05
                     0.00786302     -0.00948767       -0.263046       -0.941027    -1.29772e-07    -2.20412e-06     4.91288e-07     -3.7903e-07
                     3.0767e-05      3.9346e-05    -3.58553e-07    -8.70921e-07       -0.378565        0.752849     1.09423e-07    -9.54427e-08
                     2.0472e-05     2.63506e-05     5.35205e-07    -6.52428e-07     2.73724e-07      5.5941e-08       -0.375885        0.750886
      4.75e+07        -0.956742        0.181019      0.00789855     -0.00962669     3.15196e-05     3.93371e-05     2.03552e-05     2.63353e-05
                     0.00781102     -0.00958046       -0.269565        -0.93906    -1.45568e-07    -2.20108e-06     4.95577e-07    -3.88382e-07
                    3.11443e-05     3.93129e-05    -3.68361e-07    -8.67943e-07       -0.375339        0.754302     1.07546e-07    -9.49915e-08
                     2.0716e-05      2.6319e-05     5.30537e-07    -6.58647e-07     2.70112e-07     5.78743e-08       -0.372668        0.752323
     4.752e+07        -0.955006        0.189618      0.00784565     -0.00972034     3.18976e-05     3.92981e-05     2.05973e-05      2.6303e-05
                     0.00775804     -0.00967316       -0.276071       -0.937048    -1.61285e-07    -2.19789e-06     4.99725e-07     -3.9786e-07
                    3.15234e-05     3.92772e-05    -3.78084e-07    -8.64904e-07       -0.372108        0.755741     1.05654e-07    -9.44914e-08
                    2.09608e-05     2.62856e-05     5.25807e-07    -6.64817e-07     2.66571e-07     5.98936e-08       -0.369446        0.753746
     4.754e+07        -0.953189        0.198206      0.00779176     -0.00981388     3.22772e-05     3.92562e-05     2.08403e-05     2.62688e-05
                      0.0077041     -0.00976574       -0.282564       -0.934989    -1.76922e-07    -2.19456e-06     5.03727e-07    -4.07461e-07
                    3.19041e-05     3.92387e-05    -3.87721e-07    -8.61806e-07       -0.368874        0.757165     1.03747e-07    -9.39421e-08
                    2.12065e-05     2.62502e-05     5.21016e-07    -6.70938e-07     2.63102e-07     6.19972e-08       -0.366221        0.755154
     4.756e+07        -0.951291        0.206783      0.00773689      -0.0099073     3.26584e-05     3.92116e-05     2.10842e-05     2.62328e-05
                     0.00764917      -0.0098582       -0.289043       -0.932886    -1.92478e-07    -2.19108e-06     5.07583e-07    -4.17183e-07
                    3.22866e-05     3.91974e-05    -3.97271e-07    -8.58651e-07       -0.365636        0.758574     1.01828e-07    -9.33432e-08
                     2.1453e-05     2.62129e-05     5.16164e-07     -6.7701e-07     2.59707e-07     6.41834e-08       -0.362992        0.756548
     4.758e+07        -0.949313        0.215348      0.00768103      -0.0100006     3.30412e-05     3.91642e-05     2.13289e-05     2.61949e-05
                     0.00759327     -0.00995053       -0.295507       -0.930736     -2.0795e-07    -2.18745e-06     5.11288e-07    -4.27024e-07
                    3.26707e-05     3.91533e-05    -4.06733e-07    -8.55441e-07       -0.362395        0.759969     9.98975e-08    -9.26943e-08
                    2.17004e-05     2.61737e-05     5.11253e-07    -6.83032e-07     2.56389e-07     6.64503e-08        -0.35976        0.757927
      4.76e+07        -0.947254          0.2239      0.00762417      -0.0100938     3.34256e-05     3.91139e-05     2.15745e-05     2.61551e-05
                     0.00753639      -0.0100427       -0.301957       -0.928542    -2.23337e-07    -2.18369e-06     5.14841e-07    -4.36981e-07
                    3.30565e-05     3.91064e-05    -4.16108e-07    -8.52179e-07        -0.35915         0.76135     9.79573e-08    -9.19951e-08
                    2.19487e-05     2.61326e-05     5.06284e-07    -6.89003e-07      2.5315e-07     6.87961e-08       -0.356524        0.759292
     4.762e+07        -0.945115        0.232439      0.00756632      -0.0101868     3.38116e-05     3.90608e-05     2.18209e-05     2.61134e-05
                     0.00747852      -0.0101347       -0.308393       -0.926303    -2.38637e-07    -2.17979e-06     5.18238e-07    -4.47051e-07
                     3.3444e-05     3.90566e-05    -4.25394e-07    -8.48867e-07       -0.355901        0.762716     9.60089e-08    -9.12455e-08
                    2.21978e-05     2.60895e-05     5.01256e-07    -6.94924e-07     2.49993e-07      7.1219e-08       -0.353284        0.760643
     4.764e+07        -0.942895        0.240963      0.00750747      -0.0102796     3.41991e-05     3.90047e-05     2.20682e-05     2.60697e-05
                     0.00741966      -0.0102266       -0.314812       -0.924018    -2.53849e-07    -2.17575e-06     5.21478e-07    -4.57233e-07
                    3.38331e-05     3.90038e-05    -4.34591e-07    -8.45508e-07       -0.352649        0.764069     9.40537e-08    -9.04452e-08
                    2.24476e-05     2.60444e-05     4.96172e-07    -7.00794e-07      2.4692e-07     7.37168e-08       -0.350042         0.76198
     4.766e+07        -0.940594        0.249471      0.00744762      -0.0103723     3.45881e-05     3.89457e-05     2.23163e-05     2.60241e-05
                     0.00735982      -0.0103183       -0.321217       -0.921689    -2.68971e-07    -2.17157e-06     5.24556e-07    -4.67523e-07
                    3.42238e-05     3.89481e-05    -4.43699e-07    -8.42102e-07       -0.349394        0.765406     9.20933e-08    -8.95939e-08
                    2.26983e-05     2.59973e-05     4.91031e-07    -7.06612e-07     2.43932e-07     7.62876e-08       -0.346796        0.763302
     4.768e+07        -0.938213        0.257964      0.00738678      -0.0104648     3.49787e-05     3.88837e-05     2.25652e-05     2.59765e-05
                     0.00729898      -0.0104098       -0.327605       -0.919315    -2.84003e-07    -2.16727e-06     5.27471e-07    -4.77918e-07
                    3.46161e-05     3.88894e-05    -4.52717e-07    -8.38654e-07       -0.346135         0.76673     9.01291e-08    -8.86915e-08
                    2.29498e-05     2.59482e-05     4.85836e-07    -7.12378e-07     2.41032e-07     7.89293e-08       -0.343547         0.76461
      4.77e+07        -0.935752        0.266439      0.00732492      -0.0105572     3.53708e-05     3.88187e-05      2.2815e-05     2.59269e-05
                     0.00723715      -0.0105011       -0.333977       -0.916897    -2.98942e-07    -2.16284e-06     5.30221e-07    -4.88416e-07
                    3.50101e-05     3.88277e-05    -4.61646e-07    -8.35165e-07       -0.342874        0.768039     8.81626e-08    -8.77381e-08
                    2.32021e-05      2.5897e-05     4.80585e-07    -7.18092e-07     2.38222e-07     8.16397e-08       -0.340295        0.765904
     4.772e+07         -0.93321        0.274897      0.00726206      -0.0106493     3.57644e-05     3.87507e-05     2.30655e-05     2.58753e-05
                     0.00717433      -0.0105923       -0.340333       -0.914434    -3.13788e-07    -2.15828e-06     5.32803e-07    -4.99014e-07
                    3.54056e-05      3.8763e-05    -4.70485e-07    -8.31637e-07       -0.339609        0.769335     8.61953e-08    -8.67333e-08
                    2.34551e-05     2.58438e-05     4.75281e-07    -7.23754e-07     2.35503e-07     8.44166e-08        -0.33704        0.767184
     4.774e+07        -0.930588        0.283336      0.00719819      -0.0107412     3.61594e-05     3.86797e-05     2.33167e-05     2.58216e-05
                      0.0071105      -0.0106832       -0.346672       -0.911927    -3.28538e-07    -2.15359e-06     5.35214e-07    -5.09708e-07
                    3.58028e-05     3.86952e-05    -4.79234e-07    -8.28073e-07       -0.336341        0.770616     8.42288e-08    -8.56773e-08
                    2.37088e-05     2.57885e-05     4.69925e-07    -7.29364e-07     2.32879e-07     8.72579e-08       -0.333782         0.76845
     4.776e+07        -0.927886        0.291756      0.00713331      -0.0108329      3.6556e-05     3.86056e-05     2.35687e-05     2.57659e-05
                     0.00704568      -0.0107739       -0.352993       -0.909375    -3.43193e-07    -2.14879e-06     5.37452e-07    -5.20497e-07
                    3.62014e-05     3.86242e-05    -4.87893e-07    -8.24475e-07        -0.33307        0.771883     8.22645e-08    -8.45701e-08
                    2.39633e-05     2.57311e-05     4.64516e-07     -7.3492e-07     2.30351e-07     9.01611e-08       -0.330521        0.769702
     4.778e+07        -0.925103        0.300155      0.00706742      -0.0109244      3.6954e-05     3.85283e-05     2.38215e-05     2.57081e-05
                     0.00697986      -0.0108643       -0.359298        -0.90678     -3.5775e-07    -2.14386e-06     5.39515e-07    -5.31377e-07
                    3.66017e-05     3.85501e-05    -4.96462e-07    -8.20846e-07       -0.329796        0.773137     8.03039e-08    -8.34116e-08
                    2.42185e-05     2.56715e-05     4.59056e-07    -7.40423e-07      2.2792e-07     9.31239e-08       -0.327257         0.77094
      4.78e+07        -0.922241        0.308533      0.00700051      -0.0110157     3.73534e-05     3.84479e-05      2.4075e-05     2.56482e-05
                     0.00691304      -0.0109545       -0.365584       -0.904141     -3.7221e-07    -2.13882e-06     5.41402e-07    -5.42344e-07
                    3.70034e-05     3.84729e-05    -5.04942e-07    -8.17188e-07       -0.326519        0.774376     7.83485e-08     -8.2202e-08
                    2.44744e-05     2.56099e-05     4.53545e-07    -7.45873e-07     2.25589e-07      9.6144e-08       -0.323991        0.772164
     4.782e+07        -0.919299         0.31689      0.00693259      -0.0111067     3.77543e-05     3.83643e-05     2.43292e-05     2.55862e-05
                     0.00684521      -0.0110445       -0.371852       -0.901459     -3.8657e-07    -2.13366e-06     5.43108e-07    -5.53396e-07
                    3.74067e-05     3.83924e-05    -5.13332e-07    -8.13502e-07        -0.32324        0.775601     7.63998e-08    -8.09413e-08
                     2.4731e-05     2.55461e-05     4.47985e-07    -7.51269e-07     2.23359e-07     9.92188e-08       -0.320721        0.773374
     4.784e+07        -0.916277        0.325224      0.00686365      -0.0111974     3.81565e-05     3.82775e-05     2.45841e-05      2.5522e-05
                     0.00677638      -0.0111342       -0.378102       -0.898733    -4.00829e-07    -2.12839e-06     5.44633e-07     -5.6453e-07
                    3.78114e-05     3.83087e-05    -5.21632e-07    -8.09792e-07       -0.319957        0.776813     7.44593e-08    -7.96299e-08
                    2.49882e-05     2.54801e-05     4.42376e-07    -7.56611e-07     2.21231e-07     1.02346e-07       -0.317449         0.77457
     4.786e+07        -0.913175        0.333534      0.00679369      -0.0112879     3.85602e-05     3.81875e-05     2.48397e-05     2.54557e-05
                     0.00670654      -0.0112236       -0.384333       -0.895963    -4.14988e-07    -2.12301e-06     5.45975e-07    -5.75742e-07
                    3.82177e-05     3.82218e-05    -5.29843e-07     -8.0606e-07       -0.316672         0.77801     7.25285e-08    -7.82677e-08
                    2.52461e-05     2.54119e-05     4.36719e-07      -7.619e-07     2.19209e-07     1.05523e-07       -0.314175        0.775752
     4.788e+07        -0.909994        0.341819      0.00672271      -0.0113781     3.89652e-05     3.80942e-05      2.5096e-05     2.53872e-05
                     0.00663569      -0.0113127       -0.390545       -0.893151    -4.29045e-07    -2.11752e-06     5.47131e-07     -5.8703e-07
                    3.86254e-05     3.81315e-05    -5.37965e-07    -8.02308e-07       -0.313384        0.779194     7.06089e-08    -7.68552e-08
                    2.55046e-05     2.53415e-05     4.31015e-07    -7.67134e-07     2.17292e-07     1.08747e-07       -0.310898        0.776921
      4.79e+07        -0.906734         0.35008      0.00665072       -0.011468     3.93716e-05     3.79976e-05     2.53529e-05     2.53166e-05
                     0.00656383      -0.0114016       -0.396737       -0.890295    -4.42999e-07    -2.11193e-06       5.481e-07    -5.98389e-07
                    3.90345e-05     3.80378e-05    -5.45999e-07    -7.98539e-07       -0.310094        0.780364     6.87019e-08    -7.53925e-08
                    2.57638e-05     2.52689e-05     4.25264e-07    -7.72314e-07     2.15483e-07     1.12015e-07       -0.307618        0.778076
     4.792e+07        -0.903395        0.358315       0.0065777      -0.0115576     3.97794e-05     3.78977e-05     2.56104e-05     2.52437e-05
                     0.00649097      -0.0114901        -0.40291       -0.887397     -4.5685e-07    -2.10623e-06      5.4888e-07    -6.09816e-07
                    3.94451e-05     3.79409e-05    -5.53945e-07    -7.94754e-07       -0.306801        0.781521      6.6809e-08      -7.388e-08
                    2.60235e-05      2.5194e-05     4.19468e-07     -7.7744e-07     2.13783e-07     1.15325e-07       -0.304336        0.779218
     4.794e+07        -0.899976        0.366523      0.00650365      -0.0116468     4.01884e-05     3.77944e-05     2.58686e-05     2.51686e-05
                     0.00641709      -0.0115783       -0.409063       -0.884455    -4.70596e-07    -2.10044e-06     5.49468e-07    -6.21309e-07
                     3.9857e-05     3.78405e-05    -5.61803e-07    -7.90956e-07       -0.303505        0.782663     6.49317e-08     -7.2318e-08
                    2.62838e-05     2.51169e-05     4.13627e-07    -7.82511e-07     2.12193e-07     1.18675e-07       -0.301051        0.780345
     4.796e+07        -0.896479        0.374703      0.00642858      -0.0117358     4.05988e-05     3.76877e-05     2.61273e-05     2.50912e-05
                     0.00634221      -0.0116662       -0.415196       -0.881472    -4.84238e-07    -2.09455e-06     5.49864e-07    -6.32864e-07
                    4.02704e-05     3.77366e-05    -5.69574e-07    -7.87148e-07       -0.300207        0.783793     6.30714e-08    -7.07069e-08
                    2.65447e-05     2.50375e-05     4.07741e-07    -7.87528e-07     2.10715e-07     1.22061e-07       -0.297764        0.781459
     4.798e+07        -0.892903        0.382855      0.00635249      -0.0118244     4.10104e-05     3.75776e-05     2.63867e-05     2.50116e-05
                     0.00626631      -0.0117538       -0.421308       -0.878446    -4.97775e-07    -2.08856e-06     5.50065e-07    -6.44476e-07
                    4.06851e-05     3.76293e-05    -5.77259e-07    -7.83331e-07       -0.296907        0.784908     6.12296e-08    -6.90471e-08
                    2.68061e-05     2.49558e-05     4.01812e-07     -7.9249e-07     2.09349e-07      1.2548e-07       -0.294475         0.78256
       4.8e+07        -0.889249        0.390977      0.00627537      -0.0119127     4.14234e-05     3.74641e-05     2.66466e-05     2.49297e-05
                      0.0061894       -0.011841         -0.4274       -0.875378    -5.11206e-07    -2.08249e-06     5.50071e-07    -6.56143e-07
                    4.11011e-05     3.75185e-05    -5.84858e-07    -7.79508e-07       -0.293604         0.78601     5.94076e-08    -6.73391e-08
                    2.70681e-05     2.48718e-05      3.9584e-07    -7.97398e-07     2.08098e-07      1.2893e-07       -0.291183        0.783647
     4.802e+07        -0.885516         0.39907      0.00619723      -0.0120006     4.18375e-05     3.73471e-05      2.6907e-05     2.48455e-05
                     0.00611148      -0.0119278        -0.43347       -0.872268    -5.24531e-07    -2.07632e-06     5.49879e-07    -6.67862e-07
                    4.15185e-05     3.74042e-05    -5.92373e-07    -7.75682e-07       -0.290299        0.787099     5.76069e-08    -6.55834e-08
                    2.73305e-05     2.47854e-05     3.89826e-07    -8.02251e-07     2.06962e-07     1.32408e-07       -0.287889        0.784721
     4.804e+07        -0.881705        0.407132      0.00611806      -0.0120882     4.22529e-05     3.72266e-05      2.7168e-05     2.47589e-05
                     0.00603254      -0.0120143       -0.439519       -0.869116    -5.37749e-07    -2.07006e-06     5.49488e-07    -6.79628e-07
                    4.19372e-05     3.72863e-05    -5.99803e-07    -7.71853e-07       -0.286992        0.788174     5.58289e-08    -6.37805e-08
                    2.75935e-05     2.46967e-05     3.83771e-07     -8.0705e-07     2.05943e-07     1.35911e-07       -0.284593        0.785781
     4.806e+07        -0.877817        0.415162      0.00603787      -0.0121754     4.26695e-05     3.71026e-05     2.74294e-05     2.46701e-05
                     0.00595259      -0.0121004       -0.445546       -0.865922     -5.5086e-07    -2.06373e-06     5.48897e-07    -6.91437e-07
                    4.23571e-05     3.71648e-05    -6.07151e-07    -7.68026e-07       -0.283682        0.789236      5.4075e-08     -6.1931e-08
                    2.78569e-05     2.46057e-05     3.77675e-07    -8.11794e-07      2.0504e-07     1.39437e-07       -0.281295        0.786828
     4.808e+07        -0.873851         0.42316      0.00595664      -0.0122622     4.30873e-05     3.69749e-05     2.76914e-05     2.45789e-05
                     0.00587163      -0.0121861       -0.451551       -0.862687    -5.63865e-07     -2.0573e-06     5.48104e-07    -7.03288e-07
                    4.27783e-05     3.70397e-05    -6.14416e-07    -7.64201e-07        -0.28037        0.790285     5.23466e-08    -6.00355e-08
                    2.81207e-05     2.45122e-05     3.71539e-07    -8.16483e-07     2.04256e-07     1.42981e-07       -0.277994        0.787862
      4.81e+07        -0.869808        0.431124      0.00587439      -0.0123486     4.35062e-05     3.68437e-05     2.79538e-05     2.44853e-05
                     0.00578965      -0.0122714       -0.457534       -0.859411    -5.76762e-07    -2.05081e-06     5.47108e-07    -7.15174e-07
                    4.32008e-05     3.69109e-05      -6.216e-07    -7.60381e-07       -0.277056         0.79132      5.0645e-08    -5.80947e-08
                     2.8385e-05     2.44164e-05     3.65364e-07    -8.21117e-07     2.03591e-07     1.46542e-07       -0.274692        0.788883
     4.812e+07        -0.865688        0.439055      0.00579112      -0.0124345     4.39263e-05     3.67089e-05     2.82167e-05     2.43893e-05
                     0.00570666      -0.0123563       -0.463494       -0.856094    -5.89551e-07    -2.04423e-06     5.45909e-07    -7.27094e-07
                    4.36244e-05     3.67785e-05    -6.28703e-07    -7.56568e-07        -0.27374        0.792342     4.89715e-08    -5.61091e-08
                    2.86497e-05     2.43181e-05      3.5915e-07    -8.25697e-07     2.03045e-07     1.50115e-07       -0.271388         0.78989
     4.814e+07        -0.861491        0.446951      0.00570682      -0.0125201     4.43474e-05     3.65704e-05       2.848e-05     2.42909e-05
                     0.00562266      -0.0124408       -0.469432       -0.852735    -6.02234e-07    -2.03758e-06     5.44504e-07    -7.39043e-07
                    4.40493e-05     3.66423e-05    -6.35728e-07    -7.52764e-07       -0.270422         0.79335     4.73275e-08    -5.40796e-08
                    2.89148e-05     2.42174e-05     3.52898e-07    -8.30223e-07      2.0262e-07     1.53699e-07       -0.268081        0.790884
     4.816e+07        -0.857217        0.454811      0.00562149      -0.0126052     4.47697e-05     3.64282e-05     2.87437e-05     2.41901e-05
                     0.00553765      -0.0125248       -0.475346       -0.849336    -6.14809e-07    -2.03086e-06     5.42893e-07    -7.51017e-07
                    4.44752e-05     3.65023e-05    -6.42675e-07    -7.48971e-07       -0.267102        0.794346     4.57142e-08    -5.20068e-08
                    2.91802e-05     2.41143e-05     3.46609e-07    -8.34694e-07     2.02316e-07      1.5729e-07       -0.264773        0.791865
     4.818e+07        -0.852867        0.462634      0.00553513      -0.0126899     4.51931e-05     3.62824e-05     2.90078e-05     2.40869e-05
                     0.00545162      -0.0126084       -0.481238       -0.845897    -6.27276e-07    -2.02407e-06     5.41075e-07    -7.63013e-07
                    4.49024e-05     3.63586e-05    -6.49545e-07    -7.45192e-07       -0.263779        0.795328     4.41331e-08    -4.98916e-08
                     2.9446e-05     2.40087e-05     3.40283e-07    -8.39111e-07     2.02133e-07     1.60885e-07       -0.261462        0.792833
      4.82e+07        -0.848442        0.470421      0.00544775      -0.0127741     4.56175e-05     3.61327e-05     2.92723e-05     2.39812e-05
                     0.00536458      -0.0126915       -0.487105       -0.842417    -6.39636e-07    -2.01721e-06      5.3905e-07    -7.75027e-07
                    4.53306e-05     3.62111e-05    -6.56339e-07    -7.41429e-07       -0.260455        0.796298     4.25852e-08    -4.77347e-08
                    2.97121e-05     2.39006e-05     3.33921e-07    -8.43473e-07     2.02072e-07     1.64481e-07        -0.25815        0.793788
     4.822e+07         -0.84394         0.47817      0.00535935      -0.0128579      4.6043e-05     3.59793e-05     2.95371e-05      2.3873e-05
                     0.00527653      -0.0127742       -0.492949       -0.838897    -6.51889e-07    -2.01029e-06     5.36815e-07    -7.87055e-07
                      4.576e-05     3.60597e-05     -6.6306e-07    -7.37683e-07       -0.257129        0.797254     4.10719e-08     -4.5537e-08
                    2.99785e-05       2.379e-05     3.27524e-07    -8.47781e-07     2.02134e-07     1.68075e-07       -0.254836         0.79473
     4.824e+07        -0.839363         0.48588      0.00526992      -0.0129412     4.64694e-05     3.58221e-05     2.98023e-05     2.37624e-05
                     0.00518747      -0.0128564       -0.498768       -0.835336    -6.64035e-07     -2.0033e-06     5.34371e-07    -7.99093e-07
                    4.61904e-05     3.59044e-05    -6.69708e-07    -7.33956e-07         -0.2538        0.798197     3.95944e-08    -4.32994e-08
                    3.02452e-05      2.3677e-05     3.21091e-07    -8.52036e-07     2.02319e-07     1.71664e-07        -0.25152        0.795659
     4.826e+07        -0.834711         0.49355      0.00517947       -0.013024     4.68968e-05     3.56611e-05     3.00677e-05     2.36492e-05
                     0.00509741      -0.0129381       -0.504563       -0.831737    -6.76075e-07    -1.99626e-06     5.31718e-07    -8.11137e-07
                    4.66218e-05     3.57452e-05    -6.76285e-07    -7.30251e-07        -0.25047        0.799128     3.81539e-08    -4.10228e-08
                    3.05121e-05     2.35614e-05     3.14624e-07    -8.56236e-07     2.02626e-07     1.75244e-07       -0.248202        0.796575
     4.828e+07        -0.829984         0.50118      0.00508799      -0.0131063     4.73252e-05     3.54962e-05     3.03334e-05     2.35336e-05
                     0.00500633      -0.0130193       -0.510334       -0.828097    -6.88008e-07    -1.98916e-06     5.28853e-07    -8.23184e-07
                    4.70542e-05     3.55821e-05    -6.82792e-07    -7.26569e-07       -0.247138        0.800045     3.67515e-08    -3.87081e-08
                    3.07793e-05     2.34432e-05     3.08123e-07    -8.60383e-07     2.03057e-07     1.78813e-07       -0.244883        0.797478
      4.83e+07        -0.825183        0.508769       0.0049955      -0.0131881     4.77545e-05     3.53275e-05     3.05994e-05     2.34154e-05
                     0.00491425         -0.0131       -0.516079       -0.824418    -6.99836e-07    -1.98201e-06     5.25778e-07    -8.35229e-07
                    4.74876e-05     3.54151e-05    -6.89231e-07    -7.22912e-07       -0.243804         0.80095     3.53884e-08    -3.63563e-08
                    3.10467e-05     2.33226e-05     3.01589e-07    -8.64476e-07      2.0361e-07     1.82367e-07       -0.241562        0.798369
     4.832e+07        -0.820308        0.516317      0.00490198      -0.0132694     4.81847e-05     3.51548e-05     3.08656e-05     2.32946e-05
                     0.00482116      -0.0131801       -0.521799         -0.8207    -7.11558e-07     -1.9748e-06     5.22491e-07    -8.47269e-07
                     4.7922e-05      3.5244e-05    -6.95604e-07    -7.19282e-07       -0.240468        0.801842     3.40658e-08    -3.39683e-08
                    3.13142e-05     2.31993e-05     2.95022e-07    -8.68515e-07     2.04287e-07     1.85903e-07       -0.238239        0.799246
     4.834e+07        -0.815359        0.523822      0.00480745      -0.0133501     4.86158e-05     3.49782e-05      3.1132e-05     2.31713e-05
                     0.00472706      -0.0132598       -0.527494       -0.816943    -7.23175e-07    -1.96755e-06     5.18992e-07    -8.59299e-07
                    4.83573e-05     3.50689e-05    -7.01912e-07    -7.15681e-07       -0.237131        0.802721     3.27847e-08    -3.15453e-08
                    3.15819e-05     2.30735e-05     2.88423e-07    -8.72501e-07     2.05087e-07     1.89418e-07       -0.234914        0.800111
     4.836e+07        -0.810336        0.531283      0.00471189      -0.0134303     4.90477e-05     3.47976e-05     3.13986e-05     2.30454e-05
                     0.00463197      -0.0133389       -0.533163       -0.813146    -7.34688e-07    -1.96025e-06     5.15281e-07    -8.71316e-07
                    4.87935e-05     3.48897e-05    -7.08157e-07     -7.1211e-07       -0.233791        0.803587     3.15462e-08    -2.90882e-08
                    3.18498e-05     2.29451e-05     2.81792e-07    -8.76434e-07      2.0601e-07     1.92908e-07       -0.231587        0.800963
     4.838e+07        -0.805241        0.538701      0.00461533      -0.0135099     4.94805e-05      3.4613e-05     3.16654e-05      2.2917e-05
                     0.00453587      -0.0134174       -0.538807       -0.809312    -7.46098e-07     -1.9529e-06     5.11359e-07    -8.83316e-07
                    4.92306e-05     3.47065e-05     -7.1434e-07    -7.08572e-07        -0.23045         0.80444     3.03513e-08    -2.65982e-08
                    3.21178e-05      2.2814e-05      2.7513e-07    -8.80314e-07     2.07056e-07     1.96372e-07       -0.228259        0.801803
      4.84e+07        -0.800072        0.546073      0.00451774       -0.013589     4.99141e-05     3.44244e-05     3.19323e-05     2.27859e-05
                     0.00443877      -0.0134954       -0.544423       -0.805439    -7.57405e-07    -1.94552e-06     5.07223e-07    -8.95295e-07
                    4.96685e-05     3.45191e-05    -7.20465e-07    -7.05068e-07       -0.227107        0.805281     2.92011e-08    -2.40763e-08
                    3.23858e-05     2.26804e-05     2.68437e-07    -8.84141e-07     2.08224e-07     1.99805e-07        -0.22493         0.80263
     4.842e+07        -0.794832          0.5534      0.00441915      -0.0136675     5.03484e-05     3.42317e-05     3.21993e-05     2.26522e-05
                     0.00434067      -0.0135727       -0.550014       -0.801527    -7.68609e-07    -1.93809e-06     5.02876e-07    -9.07249e-07
                    5.01072e-05     3.43276e-05    -7.26531e-07      -7.016e-07       -0.223763        0.806109     2.80965e-08    -2.15238e-08
                    3.26539e-05     2.25441e-05     2.61713e-07    -8.87916e-07     2.09514e-07     2.03204e-07       -0.221598        0.803444
     4.844e+07        -0.789519        0.560681      0.00431954      -0.0137454     5.07835e-05      3.4035e-05     3.24664e-05     2.25159e-05
                     0.00424158      -0.0136495       -0.555578       -0.797578    -7.79712e-07    -1.93063e-06     4.98316e-07    -9.19173e-07
                    5.05467e-05     3.41319e-05    -7.32542e-07    -6.98168e-07       -0.220416        0.806925     2.70385e-08    -1.89417e-08
                    3.29221e-05     2.24052e-05      2.5496e-07    -8.91638e-07     2.10926e-07     2.06566e-07       -0.218265        0.804246
     4.846e+07        -0.784135        0.567915      0.00421893      -0.0138227     5.12193e-05     3.38341e-05     3.27336e-05     2.23769e-05
                     0.00414149      -0.0137257       -0.561115        -0.79359    -7.90715e-07    -1.92313e-06     4.93544e-07    -9.31065e-07
                    5.09869e-05      3.3932e-05    -7.38499e-07    -6.94776e-07       -0.217068        0.807728      2.6028e-08    -1.63312e-08
                    3.31903e-05     2.22637e-05     2.48176e-07    -8.95309e-07     2.12459e-07     2.09888e-07       -0.214931        0.805035
     4.848e+07        -0.778679        0.575101      0.00411731      -0.0138994     5.16558e-05     3.36291e-05     3.30008e-05     2.22353e-05
                     0.00404041      -0.0138013       -0.566624       -0.789565    -8.01618e-07    -1.91559e-06      4.8856e-07     -9.4292e-07
                    5.14279e-05     3.37279e-05    -7.44405e-07    -6.91423e-07       -0.213719        0.808519      2.5066e-08    -1.36936e-08
                    3.34585e-05     2.21194e-05     2.41364e-07    -8.98927e-07     2.14112e-07     2.13167e-07       -0.211595        0.805812
      4.85e+07        -0.773153        0.582238      0.00401468      -0.0139754     5.20929e-05       3.342e-05     3.32681e-05      2.2091e-05
                     0.00393835      -0.0138763       -0.572107       -0.785502    -8.12423e-07    -1.90803e-06     4.83365e-07    -9.54733e-07
                    5.18696e-05     3.35195e-05    -7.50261e-07    -6.88112e-07       -0.210367        0.809297     2.41532e-08    -1.10301e-08
                    3.37266e-05     2.19725e-05     2.34523e-07    -9.02493e-07     2.15884e-07       2.164e-07       -0.208257        0.806576
     4.852e+07        -0.767557        0.589326      0.00391106      -0.0140508     5.25307e-05     3.32066e-05     3.35353e-05      2.1944e-05
                     0.00383529      -0.0139506       -0.577561       -0.781403     -8.2313e-07    -1.90044e-06     4.77959e-07    -9.66502e-07
                    5.23119e-05     3.33068e-05     -7.5607e-07    -6.84845e-07       -0.207014        0.810062     2.32906e-08      -8.342e-09
                    3.39947e-05     2.18229e-05     2.27653e-07    -9.06008e-07     2.17776e-07     2.19583e-07       -0.204918        0.807328
     4.854e+07         -0.76189        0.596365      0.00380643      -0.0141256     5.29691e-05     3.29891e-05     3.38025e-05     2.17943e-05
                     0.00373125      -0.0140243       -0.582988       -0.777266    -8.33741e-07    -1.89282e-06     4.72342e-07    -9.78222e-07
                    5.27548e-05     3.30898e-05    -7.61833e-07    -6.81621e-07        -0.20366        0.810815     2.24788e-08    -5.63049e-09
                    3.42627e-05     2.16706e-05     2.20755e-07    -9.09472e-07     2.19786e-07     2.22713e-07       -0.201577        0.808067
     4.856e+07        -0.756154        0.603352       0.0037008      -0.0141998      5.3408e-05     3.27673e-05     3.40696e-05      2.1642e-05
                     0.00362622      -0.0140974       -0.588387       -0.773092    -8.44257e-07    -1.88518e-06     4.66514e-07    -9.89889e-07
                    5.31984e-05     3.28684e-05    -7.67553e-07    -6.78444e-07       -0.200303        0.811556     2.17187e-08    -2.89691e-09
                    3.45305e-05     2.15156e-05     2.13829e-07    -9.12884e-07     2.21913e-07     2.25787e-07       -0.198234        0.808794
     4.858e+07        -0.750349        0.610289      0.00359419      -0.0142732     5.38475e-05     3.25412e-05     3.43366e-05     2.14869e-05
                     0.00352022      -0.0141697       -0.593757       -0.768882    -8.54679e-07    -1.87752e-06     4.60478e-07     -1.0015e-06
                    5.36425e-05     3.26427e-05    -7.73233e-07    -6.75313e-07       -0.196945        0.812284     2.10111e-08    -1.42587e-10
                    3.47983e-05     2.13579e-05     2.06876e-07    -9.16246e-07     2.24156e-07     2.28803e-07        -0.19489        0.809509
      4.86e+07        -0.744475        0.617173      0.00348657       -0.014346     5.42875e-05     3.23108e-05     3.46036e-05      2.1329e-05
                     0.00341324      -0.0142414       -0.599099       -0.764635    -8.65007e-07    -1.86983e-06     4.54232e-07    -1.01305e-06
                    5.40871e-05     3.24126e-05    -7.78874e-07    -6.72231e-07       -0.193586           0.813     2.03565e-08     2.63115e-09
                    3.50658e-05     2.11974e-05     1.99895e-07    -9.19556e-07     2.26513e-07     2.31757e-07       -0.191545        0.810212
     4.862e+07        -0.738532        0.624004      0.00337797      -0.0144181      5.4728e-05     3.20761e-05     3.48703e-05     2.11685e-05
                     0.00330528      -0.0143124       -0.604411       -0.760351    -8.75245e-07    -1.86213e-06     4.47779e-07    -1.02453e-06
                    5.45322e-05      3.2178e-05    -7.84478e-07    -6.69197e-07       -0.190225        0.813704     1.97557e-08     5.42293e-09
                    3.53332e-05     2.10342e-05     1.92888e-07    -9.22817e-07     2.28985e-07     2.34646e-07       -0.188198        0.810902
     4.864e+07        -0.732522        0.630782      0.00326839      -0.0144895      5.5169e-05      3.1837e-05      3.5137e-05     2.10052e-05
                     0.00319636      -0.0143827       -0.609695       -0.756032    -8.85392e-07    -1.85442e-06     4.41118e-07    -1.03595e-06
                    5.49778e-05      3.1939e-05    -7.90049e-07    -6.66214e-07       -0.186862        0.814395     1.92093e-08     8.23139e-09
                    3.56004e-05     2.08683e-05     1.85854e-07    -9.26027e-07     2.31569e-07     2.37466e-07        -0.18485         0.81158
     4.866e+07        -0.726445        0.637506      0.00315782      -0.0145601     5.56103e-05     3.15936e-05     3.54034e-05     2.08391e-05
                     0.00308646      -0.0144523        -0.61495       -0.751677     -8.9545e-07    -1.84669e-06     4.34251e-07    -1.04729e-06
                    5.54238e-05     3.16955e-05    -7.95589e-07    -6.63282e-07       -0.183497        0.815074     1.87179e-08     1.10551e-08
                    3.58673e-05     2.06995e-05     1.78793e-07    -9.29188e-07     2.34265e-07     2.40216e-07         -0.1815        0.812246
     4.868e+07        -0.720301        0.644175      0.00304627      -0.0146301     5.60521e-05     3.13458e-05     3.56696e-05     2.06702e-05
                      0.0029756      -0.0145212       -0.620175       -0.747286    -9.05422e-07    -1.83894e-06     4.27179e-07    -1.05856e-06
                    5.58702e-05     3.14475e-05    -8.01099e-07    -6.60403e-07       -0.180131        0.815741      1.8282e-08     1.38927e-08
                    3.61339e-05     2.05281e-05     1.71706e-07    -9.32298e-07      2.3707e-07     2.42892e-07       -0.178149          0.8129
      4.87e+07         -0.71409        0.650788      0.00293374      -0.0146993     5.64942e-05     3.10935e-05     3.59355e-05     2.04986e-05
                     0.00286378      -0.0145893        -0.62537        -0.74286    -9.15307e-07    -1.83119e-06     4.19903e-07    -1.06975e-06
                     5.6317e-05      3.1195e-05    -8.06583e-07    -6.57576e-07       -0.176764        0.816395     1.79021e-08     1.67428e-08
                    3.64003e-05     2.03538e-05     1.64593e-07    -9.35359e-07     2.39983e-07      2.4549e-07       -0.174796        0.813541
     4.872e+07        -0.707813        0.657345      0.00282024      -0.0147677     5.69366e-05     3.08368e-05     3.62012e-05     2.03242e-05
                       0.002751      -0.0146567       -0.630536       -0.738399    -9.25108e-07    -1.82343e-06     4.12424e-07    -1.08085e-06
                    5.67641e-05     3.09379e-05    -8.12042e-07    -6.54803e-07       -0.173395        0.817038     1.75788e-08     1.96039e-08
                    3.66663e-05     2.01768e-05     1.57454e-07    -9.38371e-07     2.43004e-07     2.48009e-07       -0.171441        0.814171
     4.874e+07        -0.701471        0.663845      0.00270577      -0.0148354     5.73794e-05     3.05757e-05     3.64666e-05     2.01469e-05
                     0.00263726      -0.0147233       -0.635671       -0.733902    -9.34827e-07    -1.81566e-06     4.04743e-07    -1.09187e-06
                    5.72115e-05     3.06762e-05    -8.17481e-07    -6.52086e-07       -0.170024        0.817668     1.73125e-08     2.24745e-08
                    3.69319e-05     1.99969e-05     1.50289e-07    -9.41334e-07     2.46129e-07     2.50445e-07       -0.168086        0.814788
     4.876e+07        -0.695064        0.670288      0.00259034      -0.0149024     5.78224e-05       3.031e-05     3.67316e-05     1.99669e-05
                     0.00252258      -0.0147892       -0.640776       -0.729371    -9.44464e-07    -1.80789e-06     3.96862e-07    -1.10279e-06
                    5.76591e-05       3.041e-05      -8.229e-07    -6.49423e-07       -0.166652        0.818286     1.71035e-08     2.53533e-08
                    3.71972e-05     1.98143e-05     1.43099e-07    -9.44248e-07     2.49358e-07     2.52795e-07       -0.164728        0.815393
     4.878e+07        -0.688592        0.676672      0.00247394      -0.0149685     5.82656e-05     3.00398e-05     3.69963e-05      1.9784e-05
                     0.00240694      -0.0148543        -0.64585       -0.724805    -9.54022e-07    -1.80012e-06     3.88782e-07    -1.11362e-06
                     5.8107e-05      3.0139e-05    -8.28303e-07    -6.46816e-07       -0.163278        0.818892     1.69523e-08     2.82387e-08
                    3.74621e-05     1.96288e-05     1.35884e-07    -9.47113e-07     2.52688e-07     2.55057e-07        -0.16137        0.815987
      4.88e+07        -0.682056        0.682998      0.00235659      -0.0150339      5.8709e-05      2.9765e-05     3.72606e-05     1.95984e-05
                     0.00229036      -0.0149186       -0.650893       -0.720204    -9.63503e-07    -1.79234e-06     3.80505e-07    -1.12435e-06
                    5.85551e-05     2.98634e-05    -8.33692e-07    -6.44266e-07       -0.159902        0.819486     1.68592e-08     3.11292e-08
                    3.77265e-05     1.94406e-05     1.28643e-07     -9.4993e-07     2.56118e-07     2.57227e-07       -0.158009        0.816568
     4.882e+07        -0.675457        0.689264      0.00223828      -0.0150984     5.91526e-05     2.94856e-05     3.75245e-05     1.94098e-05
                     0.00217284      -0.0149821       -0.655906        -0.71557    -9.72908e-07    -1.78456e-06     3.72032e-07    -1.13498e-06
                    5.90033e-05     2.95832e-05     -8.3907e-07    -6.41773e-07       -0.156525        0.820068     1.68245e-08     3.40234e-08
                    3.79905e-05     1.92495e-05     1.21376e-07    -9.52699e-07     2.59646e-07     2.59304e-07       -0.154648        0.817137
     4.884e+07        -0.668794        0.695469      0.00211901      -0.0151622     5.95963e-05     2.92017e-05     3.77879e-05     1.92185e-05
                     0.00205439      -0.0150448       -0.660887       -0.710901    -9.82238e-07    -1.77679e-06     3.63364e-07     -1.1455e-06
                    5.94516e-05     2.92982e-05     -8.4444e-07    -6.39338e-07       -0.153147        0.820637     1.68483e-08     3.69198e-08
                    3.82539e-05     1.90556e-05     1.14085e-07     -9.5542e-07      2.6327e-07     2.61283e-07       -0.151284        0.817694
     4.886e+07        -0.662069        0.701614      0.00199881      -0.0152251     6.00401e-05     2.89131e-05     3.80509e-05     1.90243e-05
                       0.001935      -0.0151067       -0.665836       -0.706198    -9.91497e-07    -1.76902e-06     3.54505e-07    -1.15592e-06
                       5.99e-05     2.90084e-05    -8.49804e-07     -6.3696e-07       -0.149767        0.821195      1.6931e-08     3.98168e-08
                    3.85169e-05     1.88588e-05     1.06768e-07    -9.58093e-07     2.66988e-07     2.63164e-07        -0.14792        0.818239
     4.888e+07        -0.655282        0.707697      0.00187766      -0.0152871      6.0484e-05     2.86199e-05     3.83133e-05     1.88272e-05
                     0.00181469      -0.0151677       -0.670754       -0.701462    -1.00069e-06    -1.76125e-06     3.45454e-07    -1.16621e-06
                    6.03484e-05     2.87139e-05    -8.55165e-07    -6.34641e-07       -0.146385         0.82174     1.70727e-08      4.2713e-08
                    3.87792e-05     1.86592e-05      9.9427e-08    -9.60718e-07     2.70797e-07     2.64942e-07       -0.144554        0.818772
      4.89e+07        -0.648434        0.713719      0.00175557      -0.0153484     6.09279e-05      2.8322e-05     3.85752e-05     1.86273e-05
                     0.00169345      -0.0152279        -0.67564       -0.696693    -1.00981e-06    -1.75349e-06     3.36215e-07    -1.17639e-06
                    6.07968e-05     2.84147e-05    -8.60526e-07    -6.32379e-07       -0.143002        0.822274     1.72735e-08     4.56068e-08
                     3.9041e-05     1.84568e-05     9.20605e-08    -9.63296e-07     2.74696e-07     2.66616e-07       -0.141186        0.819293
     4.892e+07        -0.641525        0.719677      0.00163255      -0.0154087     6.13717e-05     2.80194e-05     3.88366e-05     1.84245e-05
                     0.00157129      -0.0152873       -0.680494        -0.69189    -1.01886e-06    -1.74574e-06     3.26788e-07    -1.18645e-06
                    6.12452e-05     2.81106e-05     -8.6589e-07    -6.30177e-07       -0.139617        0.822795     1.75335e-08     4.84967e-08
                    3.93022e-05     1.82515e-05      8.4669e-08    -9.65827e-07     2.78681e-07     2.68182e-07       -0.137817        0.819803
     4.894e+07        -0.634555        0.725572       0.0015086      -0.0154682     6.18156e-05     2.77121e-05     3.90973e-05     1.82189e-05
                     0.00144822      -0.0153457       -0.685316       -0.687055    -1.02785e-06      -1.738e-06     3.17177e-07    -1.19639e-06
                    6.16935e-05     2.78017e-05    -8.71258e-07    -6.28033e-07        -0.13623        0.823305     1.78528e-08     5.13812e-08
                    3.95628e-05     1.80433e-05     7.72524e-08     -9.6831e-07     2.82752e-07     2.69639e-07       -0.134447          0.8203
     4.896e+07        -0.627525        0.731403      0.00138372      -0.0155268     6.22594e-05     2.74001e-05     3.93575e-05     1.80103e-05
                     0.00132424      -0.0154034       -0.690105       -0.682186    -1.03678e-06    -1.73026e-06     3.07383e-07     -1.2062e-06
                    6.21417e-05     2.74879e-05    -8.76635e-07    -6.25947e-07       -0.132842        0.823802     1.82314e-08     5.42588e-08
                    3.98227e-05     1.78323e-05     6.98109e-08    -9.70747e-07     2.86905e-07     2.70984e-07       -0.131075        0.820785
     4.898e+07        -0.620436        0.737169      0.00125793      -0.0155845      6.2703e-05     2.70833e-05      3.9617e-05     1.77989e-05
                     0.00119935      -0.0154601       -0.694862       -0.677285    -1.04564e-06    -1.72254e-06     2.97408e-07    -1.21588e-06
                    6.25898e-05     2.71693e-05    -8.82023e-07     -6.2392e-07       -0.129453        0.824287     1.86693e-08     5.71279e-08
                    4.00819e-05     1.76184e-05     6.23444e-08    -9.73136e-07     2.91138e-07     2.72215e-07       -0.127701        0.821259
       4.9e+07        -0.613289         0.74287      0.00113122      -0.0156413     6.31465e-05     2.67617e-05     3.98758e-05     1.75846e-05
                     0.00107357      -0.0155159       -0.699585       -0.672352    -1.05445e-06    -1.71483e-06     2.87255e-07    -1.22542e-06
                    6.30376e-05     2.68457e-05    -8.87424e-07    -6.21951e-07       -0.126061        0.824761     1.91664e-08      5.9987e-08
                    4.03403e-05     1.74017e-05     5.48527e-08     -9.7548e-07     2.95448e-07     2.73328e-07       -0.124326         0.82172
     4.902e+07        -0.606083        0.748505      0.00100361      -0.0156972     6.35898e-05     2.64352e-05     4.01339e-05     1.73673e-05
                    0.000946884      -0.0155708       -0.704276       -0.667387     -1.0632e-06    -1.70714e-06     2.76926e-07    -1.23482e-06
                    6.34852e-05     2.65173e-05    -8.92842e-07    -6.20041e-07       -0.122669        0.825222     1.97225e-08     6.28346e-08
                     4.0598e-05      1.7182e-05     4.73359e-08    -9.77776e-07     2.99833e-07     2.74323e-07        -0.12095         0.82217
     4.904e+07        -0.598819        0.754074     0.000875083      -0.0157522     6.40329e-05      2.6104e-05     4.03913e-05     1.71472e-05
                    0.000819311      -0.0156248       -0.708933       -0.662389     -1.0719e-06    -1.69946e-06     2.66422e-07    -1.24409e-06
                    6.39326e-05     2.61838e-05    -8.98279e-07    -6.18188e-07       -0.119274        0.825672     2.03377e-08     6.56692e-08
                     4.0855e-05     1.69595e-05     3.97939e-08    -9.80026e-07      3.0429e-07     2.75197e-07       -0.117572        0.822608
     4.906e+07        -0.591498        0.759576     0.000745661      -0.0158063     6.44758e-05     2.57679e-05     4.06479e-05     1.69242e-05
                    0.000690853      -0.0156779       -0.713556        -0.65736    -1.08055e-06    -1.69179e-06     2.55747e-07    -1.25321e-06
                    6.43797e-05     2.58455e-05    -9.03739e-07    -6.16393e-07       -0.115878        0.826109     2.10115e-08     6.84892e-08
                    4.11111e-05     1.67342e-05     3.22265e-08     -9.8223e-07     3.08817e-07     2.75947e-07       -0.114192        0.823033
     4.908e+07        -0.584121         0.76501     0.000615345      -0.0158593     6.49183e-05     2.54269e-05     4.09037e-05     1.66983e-05
                    0.000561515        -0.01573       -0.718146         -0.6523    -1.08915e-06    -1.68414e-06     2.44904e-07    -1.26218e-06
                    6.48264e-05     2.55021e-05    -9.09224e-07    -6.14655e-07        -0.11248        0.826535     2.17439e-08     7.12931e-08
                    4.13663e-05     1.65059e-05     2.46337e-08    -9.84388e-07      3.1341e-07     2.76572e-07       -0.110811        0.823447
      4.91e+07        -0.576687        0.770375      0.00048414      -0.0159115     6.53605e-05      2.5081e-05     4.11586e-05     1.64694e-05
                    0.000431301      -0.0157811       -0.722702       -0.647208     -1.0977e-06    -1.67651e-06     2.33893e-07      -1.271e-06
                    6.52727e-05     2.51537e-05    -9.14736e-07    -6.12973e-07       -0.109081        0.826948     2.25346e-08     7.40795e-08
                    4.16207e-05     1.62747e-05     1.70154e-08      -9.865e-07     3.18067e-07     2.77069e-07       -0.107429        0.823849
     4.912e+07        -0.569199        0.775672     0.000352052      -0.0159626     6.58024e-05     2.47302e-05     4.14127e-05     1.62376e-05
                    0.000300218      -0.0158313       -0.727224       -0.642085     -1.1062e-06     -1.6689e-06     2.22719e-07    -1.27967e-06
                    6.57186e-05     2.48003e-05     -9.2028e-07    -6.11348e-07        -0.10568         0.82735     2.33832e-08     7.68467e-08
                    4.18742e-05     1.60407e-05     9.37142e-09    -9.88565e-07     3.22785e-07     2.77437e-07       -0.104045        0.824239
     4.914e+07        -0.561655          0.7809     0.000219087      -0.0160128     6.62438e-05     2.43744e-05     4.16659e-05      1.6003e-05
                    0.000168272      -0.0158806       -0.731711       -0.636931    -1.11467e-06    -1.66131e-06     2.11384e-07    -1.28818e-06
                     6.6164e-05     2.44418e-05    -9.25857e-07    -6.09777e-07       -0.102278        0.827739     2.42894e-08     7.95934e-08
                    4.21267e-05     1.58038e-05     1.70162e-09    -9.90585e-07     3.27561e-07     2.77674e-07       -0.100659        0.824618
     4.916e+07        -0.554057        0.786057     8.52486e-05       -0.016062     6.66848e-05     2.40137e-05     4.19182e-05     1.57654e-05
                    3.54661e-05      -0.0159288       -0.736164       -0.631747    -1.12309e-06    -1.65373e-06      1.9989e-07    -1.29654e-06
                    6.66089e-05     2.40783e-05     -9.3147e-07    -6.08262e-07      -0.0988737        0.828117     2.52529e-08      8.2318e-08
                    4.23783e-05      1.5564e-05    -5.99415e-09    -9.92559e-07     3.32392e-07     2.77778e-07      -0.0972722        0.824984
     4.918e+07        -0.546406        0.791144    -4.94558e-05      -0.0161102     6.71253e-05      2.3648e-05     4.21696e-05     1.55249e-05
                   -9.81922e-05      -0.0159761       -0.740582       -0.626532    -1.13148e-06    -1.64618e-06     1.88241e-07    -1.30473e-06
                    6.70533e-05     2.37097e-05    -9.37123e-07      -6.068e-07       -0.095468        0.828482     2.62732e-08     8.50191e-08
                    4.26289e-05     1.53213e-05    -1.37161e-08    -9.94487e-07     3.37275e-07     2.77747e-07      -0.0938837        0.825338
      4.92e+07        -0.538702         0.79616    -0.000185021      -0.0161573     6.75653e-05     2.32772e-05     4.24199e-05     1.52814e-05
                   -0.000232698      -0.0160223       -0.744965       -0.621287    -1.13983e-06    -1.63864e-06     1.76438e-07    -1.31275e-06
                    6.74971e-05     2.33359e-05    -9.42818e-07    -6.05391e-07      -0.0920606        0.828835     2.73498e-08     8.76952e-08
                    4.28785e-05     1.50757e-05    -2.14643e-08    -9.96369e-07     3.42206e-07     2.77579e-07      -0.0904935        0.825681
     4.922e+07        -0.530945        0.801104    -0.000321441      -0.0162035     6.80048e-05     2.29015e-05     4.26692e-05      1.5035e-05
                   -0.000368044      -0.0160676       -0.749313       -0.616012    -1.14814e-06    -1.63113e-06     1.64486e-07    -1.32061e-06
                    6.79403e-05      2.2957e-05    -9.48558e-07    -6.04033e-07      -0.0886516        0.829177     2.84822e-08     9.03447e-08
                     4.3127e-05     1.48272e-05     -2.9239e-08    -9.98205e-07     3.47184e-07     2.77273e-07      -0.0871019        0.826011
     4.924e+07        -0.523136        0.805976    -0.000458709      -0.0162486     6.84437e-05     2.25206e-05     4.29175e-05     1.47857e-05
                   -0.000504226      -0.0161118       -0.753626       -0.610708    -1.15643e-06    -1.62364e-06     1.52387e-07    -1.32829e-06
                    6.83828e-05      2.2573e-05    -9.54346e-07    -6.02727e-07      -0.0852409        0.829506       2.967e-08     9.29664e-08
                    4.33745e-05     1.45758e-05    -3.70404e-08    -9.99995e-07     3.52203e-07     2.76827e-07      -0.0837087         0.82633
     4.926e+07        -0.515276        0.810776     -0.00059682      -0.0162926     6.88819e-05     2.21347e-05     4.31648e-05     1.45335e-05
                   -0.000641238      -0.0161549       -0.757903       -0.605373    -1.16469e-06    -1.61617e-06     1.40143e-07    -1.33581e-06
                    6.88245e-05     2.21838e-05    -9.60185e-07     -6.0147e-07      -0.0818285        0.829824     3.09124e-08     9.55587e-08
                    4.36208e-05     1.43215e-05    -4.48688e-08    -1.00174e-06     3.57262e-07      2.7624e-07      -0.0803139        0.826637
     4.928e+07        -0.507365        0.815502    -0.000735767      -0.0163356     6.93194e-05     2.17437e-05     4.34109e-05     1.42784e-05
                   -0.000779072      -0.0161971       -0.762145        -0.60001    -1.17292e-06    -1.60872e-06     1.27759e-07    -1.34314e-06
                    6.92656e-05     2.17894e-05    -9.66077e-07    -6.00262e-07      -0.0784146        0.830129      3.2209e-08     9.81203e-08
                     4.3866e-05     1.40643e-05    -5.27243e-08    -1.00344e-06     3.62357e-07     2.75511e-07      -0.0769176        0.826931
      4.93e+07        -0.499404        0.820154    -0.000875544      -0.0163776     6.97563e-05     2.13476e-05     4.36558e-05     1.40203e-05
                   -0.000917724      -0.0162381        -0.76635       -0.594617    -1.18113e-06    -1.60129e-06     1.15237e-07     -1.3503e-06
                    6.97058e-05     2.13897e-05    -9.72025e-07    -5.99101e-07      -0.0749989        0.830422     3.35591e-08      1.0065e-07
                      4.411e-05     1.38042e-05    -6.06071e-08    -1.00509e-06     3.67485e-07     2.74638e-07      -0.0735197        0.827214
     4.932e+07        -0.491394        0.824731     -0.00101615      -0.0164184     7.01924e-05     2.09464e-05     4.38997e-05     1.37593e-05
                    -0.00105719      -0.0162781        -0.77052       -0.589196    -1.18931e-06    -1.59389e-06      1.0258e-07    -1.35728e-06
                    7.01452e-05     2.09849e-05    -9.78033e-07    -5.97986e-07      -0.0715816        0.830703     3.49619e-08     1.03145e-07
                    4.43528e-05     1.35413e-05    -6.85176e-08     -1.0067e-06     3.72642e-07     2.73619e-07      -0.0701203        0.827485
     4.934e+07        -0.483335        0.829234     -0.00115756      -0.0164582     7.06277e-05       2.054e-05     4.41423e-05     1.34953e-05
                    -0.00119745       -0.016317       -0.774653       -0.583745    -1.19748e-06    -1.58651e-06     8.97914e-08    -1.36407e-06
                    7.05837e-05     2.05748e-05    -9.84102e-07    -5.96915e-07      -0.0681626        0.830972     3.64167e-08     1.05606e-07
                    4.45944e-05     1.32754e-05    -7.64559e-08    -1.00825e-06     3.77825e-07     2.72454e-07      -0.0667192        0.827743
     4.936e+07        -0.475228        0.833661     -0.00129979      -0.0164969     7.10621e-05     2.01284e-05     4.43836e-05     1.32285e-05
                    -0.00133852      -0.0163549       -0.778749       -0.578267    -1.20564e-06    -1.57915e-06     7.68748e-08    -1.37068e-06
                    7.10213e-05     2.01594e-05    -9.90236e-07    -5.95887e-07       -0.064742        0.831229     3.79228e-08     1.08031e-07
                    4.48347e-05     1.30067e-05    -8.44223e-08    -1.00977e-06      3.8303e-07     2.71142e-07      -0.0633167         0.82799
     4.938e+07        -0.467073        0.838012     -0.00144282      -0.0165344     7.14957e-05     1.97116e-05     4.46238e-05     1.29587e-05
                    -0.00148037      -0.0163916       -0.782809        -0.57276    -1.21378e-06    -1.57182e-06     6.38332e-08     -1.3771e-06
                    7.14579e-05     1.97387e-05    -9.96438e-07    -5.94901e-07      -0.0613197        0.831474     3.94794e-08     1.10418e-07
                    4.50737e-05     1.27351e-05    -9.24171e-08    -1.01124e-06     3.88254e-07     2.69681e-07      -0.0599125        0.828225
      4.94e+07        -0.458871        0.842287     -0.00158665      -0.0165708     7.19284e-05     1.92896e-05     4.48626e-05      1.2686e-05
                    -0.00162301      -0.0164272       -0.786832       -0.567225     -1.2219e-06     -1.5645e-06       5.067e-08    -1.38333e-06
                    7.18935e-05     1.93127e-05    -1.00271e-06    -5.93954e-07      -0.0578957        0.831707     4.10856e-08     1.12766e-07
                    4.53114e-05     1.24605e-05    -1.00441e-07    -1.01266e-06     3.93494e-07     2.68071e-07      -0.0565067        0.828448
     4.942e+07        -0.450623        0.846485     -0.00173127      -0.0166062     7.23602e-05     1.88624e-05     4.51001e-05     1.24103e-05
                    -0.00176643      -0.0164617       -0.790818       -0.561662    -1.23003e-06    -1.55721e-06     3.73885e-08    -1.38936e-06
                    7.23281e-05     1.88814e-05    -1.00905e-06    -5.93045e-07        -0.05447        0.831927     4.27406e-08     1.15074e-07
                    4.55477e-05     1.21831e-05    -1.08493e-07    -1.01403e-06     3.98746e-07      2.6631e-07      -0.0530994        0.828658
     4.944e+07         -0.44233        0.850605     -0.00187668      -0.0166403      7.2791e-05     1.84299e-05     4.53362e-05     1.21318e-05
                    -0.00191062      -0.0164951       -0.794767       -0.556072    -1.23814e-06    -1.54994e-06     2.39923e-08     -1.3952e-06
                    7.27616e-05     1.84448e-05    -1.01547e-06    -5.92173e-07      -0.0510426        0.832135     4.44435e-08      1.1734e-07
                    4.57827e-05     1.19029e-05    -1.16575e-07    -1.01536e-06     4.04006e-07     2.64399e-07      -0.0496905        0.828857
     4.946e+07        -0.433991        0.854647     -0.00202286      -0.0166733     7.32207e-05     1.79921e-05      4.5571e-05     1.18503e-05
                    -0.00205558      -0.0165273       -0.798678       -0.550454    -1.24625e-06     -1.5427e-06     1.04847e-08    -1.40085e-06
                    7.31939e-05     1.80028e-05    -1.02197e-06    -5.91334e-07      -0.0476136        0.832331     4.61933e-08     1.19564e-07
                    4.60162e-05     1.16197e-05    -1.24686e-07    -1.01663e-06     4.09271e-07     2.62336e-07        -0.04628        0.829043
     4.948e+07        -0.425608        0.858611     -0.00216981      -0.0167052     7.36494e-05     1.75491e-05     4.58043e-05     1.15659e-05
                    -0.00220129      -0.0165584       -0.802552        -0.54481    -1.25436e-06    -1.53547e-06    -3.13082e-09    -1.40629e-06
                    7.36251e-05     1.75554e-05    -1.02855e-06    -5.90528e-07      -0.0441829        0.832515      4.7989e-08     1.21744e-07
                    4.62483e-05     1.13337e-05    -1.32826e-07    -1.01787e-06     4.14537e-07      2.6012e-07      -0.0428679        0.829217
      4.95e+07        -0.417181        0.862496     -0.00231752      -0.0167358     7.40769e-05     1.71007e-05     4.60362e-05     1.12786e-05
                    -0.00234775      -0.0165883       -0.806387       -0.539138    -1.26247e-06    -1.52826e-06    -1.68506e-08    -1.41154e-06
                     7.4055e-05     1.71026e-05    -1.03521e-06    -5.89752e-07      -0.0407505        0.832686     4.98297e-08     1.23879e-07
                     4.6479e-05     1.10448e-05    -1.40997e-07    -1.01905e-06     4.19801e-07     2.57752e-07      -0.0394543        0.829379
     4.952e+07        -0.408711        0.866301     -0.00246599      -0.0167653     7.45033e-05     1.66469e-05     4.62666e-05     1.09884e-05
                    -0.00249495       -0.016617       -0.810185        -0.53344    -1.27059e-06    -1.52108e-06    -3.06712e-08    -1.41658e-06
                    7.44837e-05     1.66443e-05    -1.04196e-06    -5.89004e-07      -0.0373165        0.832846     5.17144e-08     1.25967e-07
                    4.67081e-05      1.0753e-05    -1.49199e-07    -1.02019e-06     4.25058e-07      2.5523e-07       -0.036039        0.829529
     4.954e+07        -0.400199        0.870026      -0.0026152      -0.0167936     7.49285e-05     1.61878e-05     4.64955e-05     1.06953e-05
                    -0.00264289      -0.0166446       -0.813944       -0.527716    -1.27871e-06    -1.51391e-06    -4.45889e-08    -1.42142e-06
                    7.49111e-05     1.61807e-05    -1.04879e-06    -5.88282e-07      -0.0338807        0.832992     5.36419e-08     1.28008e-07
                    4.69357e-05     1.04584e-05    -1.57431e-07    -1.02127e-06     4.30306e-07     2.52555e-07      -0.0326222        0.829666
     4.956e+07        -0.391645        0.873671     -0.00276515      -0.0168207     7.53525e-05     1.57234e-05     4.67228e-05     1.03992e-05
                    -0.00279156      -0.0166709       -0.817665       -0.521965    -1.28684e-06    -1.50676e-06    -5.86001e-08    -1.42606e-06
                    7.53371e-05     1.57116e-05    -1.05572e-06    -5.87584e-07      -0.0304433        0.833127     5.56111e-08         1.3e-07
                    4.71617e-05     1.01609e-05    -1.65694e-07    -1.02231e-06      4.3554e-07     2.49726e-07      -0.0292037        0.829792
     4.958e+07         -0.38305        0.877234     -0.00291584      -0.0168466     7.57752e-05     1.52535e-05     4.69486e-05     1.01003e-05
                    -0.00294095      -0.0166961       -0.821348       -0.516189    -1.29498e-06    -1.49963e-06    -7.27012e-08    -1.43048e-06
                    7.57617e-05      1.5237e-05    -1.06274e-06    -5.86907e-07      -0.0270042        0.833249      5.7621e-08     1.31943e-07
                    4.73861e-05     9.86054e-06    -1.73988e-07     -1.0233e-06     4.40758e-07     2.46743e-07      -0.0257837        0.829905
      4.96e+07        -0.374414        0.880717     -0.00306725      -0.0168713     7.61966e-05     1.47782e-05     4.71728e-05     9.79848e-06
                    -0.00309106        -0.01672       -0.824992       -0.510386    -1.30314e-06    -1.49252e-06    -8.68884e-08     -1.4347e-06
                    7.61849e-05     1.47569e-05    -1.06985e-06    -5.86249e-07      -0.0235635        0.833358     5.96704e-08     1.33835e-07
                    4.76089e-05     9.55734e-06    -1.82314e-07    -1.02425e-06     4.45954e-07     2.43606e-07      -0.0223622        0.830005
     4.962e+07        -0.365739        0.884117     -0.00321938      -0.0168947     7.66166e-05     1.42975e-05     4.73953e-05     9.49377e-06
                    -0.00324187      -0.0167427       -0.828596       -0.504559    -1.31131e-06    -1.48542e-06    -1.01158e-07    -1.43871e-06
                    7.66066e-05     1.42714e-05    -1.07706e-06    -5.85607e-07      -0.0201211        0.833455      6.1758e-08     1.35675e-07
                    4.78301e-05      9.2513e-06    -1.90672e-07    -1.02514e-06     4.51126e-07     2.40315e-07       -0.018939        0.830094
     4.964e+07        -0.357024        0.887435     -0.00337222      -0.0169168     7.70352e-05     1.38113e-05     4.76162e-05     9.18617e-06
                    -0.00339338      -0.0167642       -0.832162       -0.498706    -1.31951e-06    -1.47834e-06    -1.15507e-07    -1.44251e-06
                    7.70267e-05     1.37803e-05    -1.08438e-06    -5.84979e-07       -0.016677         0.83354     6.38828e-08     1.37462e-07
                    4.80495e-05     8.94242e-06    -1.99061e-07    -1.02598e-06     4.56269e-07     2.36869e-07      -0.0155143         0.83017
     4.966e+07        -0.348271         0.89067     -0.00352576      -0.0169378     7.74524e-05     1.33197e-05     4.78353e-05     8.87569e-06
                    -0.00354558      -0.0167845       -0.835688       -0.492828    -1.32772e-06    -1.47127e-06     -1.2993e-07    -1.44609e-06
                    7.74453e-05     1.32837e-05    -1.09179e-06    -5.84363e-07      -0.0132313        0.833612     6.60433e-08     1.39196e-07
                    4.82673e-05      8.6307e-06    -2.07484e-07    -1.02677e-06      4.6138e-07      2.3327e-07       -0.012088        0.830233
     4.968e+07         -0.33948        0.893822        -0.00368      -0.0169574     7.78681e-05     1.28225e-05     4.80527e-05     8.56234e-06
                    -0.00369846      -0.0168034       -0.839175       -0.486925    -1.33596e-06    -1.46421e-06    -1.44425e-07    -1.44946e-06
                    7.78623e-05     1.27815e-05    -1.09931e-06    -5.83755e-07     -0.00978398        0.833671     6.82385e-08     1.40875e-07
                    4.84833e-05     8.31616e-06    -2.15939e-07    -1.02751e-06     4.66455e-07     2.29517e-07     -0.00866018        0.830284
      4.97e+07        -0.330653         0.89689     -0.00383492      -0.0169758     7.82823e-05     1.23198e-05     4.82684e-05     8.24611e-06
                    -0.00385202      -0.0168212       -0.842621       -0.480998    -1.34422e-06    -1.45717e-06    -1.58986e-07    -1.45262e-06
                    7.82776e-05     1.22737e-05    -1.10694e-06    -5.83153e-07       -0.006335        0.833718     7.04669e-08     1.42498e-07
                    4.86975e-05     7.99879e-06    -2.24428e-07     -1.0282e-06     4.71491e-07     2.25611e-07      -0.0052308        0.830322
     4.972e+07        -0.321788        0.899874     -0.00399052      -0.0169928     7.86949e-05     1.18116e-05     4.84823e-05     7.92703e-06
                    -0.00400624      -0.0168376       -0.846028       -0.475047    -1.35251e-06    -1.45014e-06    -1.73612e-07    -1.45555e-06
                    7.86912e-05     1.17604e-05    -1.11467e-06    -5.82554e-07     -0.00288441        0.833752     7.27273e-08     1.44065e-07
                    4.89099e-05     7.67861e-06     -2.3295e-07    -1.02884e-06     4.76483e-07     2.21553e-07     -0.00179988        0.830348
     4.974e+07        -0.312888        0.902773     -0.00414678      -0.0170086     7.91058e-05     1.12979e-05     4.86943e-05     7.60508e-06
                    -0.00416113      -0.0168528       -0.849395       -0.469072    -1.36083e-06    -1.44311e-06    -1.88297e-07    -1.45828e-06
                     7.9103e-05     1.12414e-05    -1.12252e-06    -5.81955e-07     0.000567803        0.833773     7.50183e-08     1.45575e-07
                    4.91205e-05     7.35561e-06    -2.41505e-07    -1.02942e-06     4.81429e-07     2.17341e-07      0.00163256        0.830362
     4.976e+07        -0.303953        0.905587     -0.00430371      -0.0170231     7.95151e-05     1.07785e-05     4.89045e-05     7.28029e-06
                    -0.00431666      -0.0168666       -0.852722       -0.463073    -1.36919e-06     -1.4361e-06    -2.03038e-07    -1.46078e-06
                     7.9513e-05     1.07168e-05    -1.13047e-06    -5.81353e-07      0.00402161        0.833782     7.73386e-08     1.47026e-07
                    4.93292e-05     7.02982e-06    -2.50095e-07    -1.02995e-06     4.86323e-07     2.12979e-07      0.00506653        0.830363
     4.978e+07        -0.294984        0.908316     -0.00446129      -0.0170363     7.99228e-05     1.02536e-05     4.91128e-05     6.95265e-06
                    -0.00447284      -0.0168792       -0.856008        -0.45705    -1.37758e-06    -1.42909e-06    -2.17831e-07    -1.46307e-06
                    7.99212e-05     1.01866e-05    -1.13855e-06    -5.80745e-07        0.007477        0.833777     7.96868e-08     1.48419e-07
                     4.9536e-05     6.70122e-06    -2.58718e-07    -1.03043e-06     4.91162e-07     2.08465e-07        0.008502        0.830351
      4.98e+07        -0.285981        0.910958     -0.00461952      -0.0170481     8.03286e-05     9.72307e-06     4.93192e-05     6.62217e-06
                    -0.00462965      -0.0168905       -0.859254       -0.451004    -1.38601e-06    -1.42208e-06    -2.32672e-07    -1.46514e-06
                    8.03275e-05     9.65075e-06    -1.14674e-06    -5.80128e-07        0.010934         0.83376     8.20614e-08     1.49752e-07
                    4.97409e-05     6.36984e-06    -2.67377e-07    -1.03086e-06     4.95944e-07     2.03801e-07        0.011939        0.830326
     4.982e+07        -0.276945        0.913514     -0.00477838      -0.0170586     8.07327e-05      9.1869e-06     4.95236e-05     6.28887e-06
                    -0.00478709      -0.0169004       -0.862458       -0.444935    -1.39448e-06    -1.41508e-06    -2.47558e-07    -1.46698e-06
                    8.07319e-05      9.1092e-06    -1.15505e-06    -5.79499e-07       0.0143925         0.83373      8.4461e-08     1.51024e-07
                    4.99439e-05     6.03568e-06     -2.7607e-07    -1.03123e-06     5.00663e-07     1.98988e-07       0.0153774        0.830288
     4.984e+07        -0.267877        0.915984     -0.00493787      -0.0170678     8.11349e-05     8.64507e-06     4.97261e-05     5.95274e-06
                    -0.00494515       -0.016909       -0.865622       -0.438844      -1.403e-06    -1.40808e-06    -2.62484e-07    -1.46861e-06
                    8.11342e-05     8.56196e-06    -1.16348e-06    -5.78854e-07       0.0178526        0.833688     8.68843e-08     1.52236e-07
                    5.01448e-05     5.69874e-06    -2.84799e-07    -1.03154e-06     5.05316e-07     1.94026e-07       0.0188173        0.830238
     4.986e+07        -0.258777        0.918365     -0.00509798      -0.0170755     8.15353e-05     8.09757e-06     4.99265e-05      5.6138e-06
                    -0.00510382      -0.0169162       -0.868745        -0.43273    -1.41155e-06    -1.40108e-06    -2.77446e-07    -1.47002e-06
                    8.15346e-05     8.00901e-06    -1.17203e-06    -5.78191e-07       0.0213141        0.833632     8.93296e-08     1.53386e-07
                    5.03438e-05     5.35903e-06    -2.93562e-07     -1.0318e-06       5.099e-07     1.88917e-07       0.0222586        0.830175
     4.988e+07        -0.249646         0.92066      -0.0052587       -0.017082     8.19337e-05     7.54437e-06     5.01249e-05     5.27205e-06
                    -0.00526308      -0.0169221       -0.871826       -0.426593    -1.42016e-06    -1.39408e-06    -2.92441e-07     -1.4712e-06
                    8.19328e-05     7.45034e-06     -1.1807e-06    -5.77506e-07       0.0247772        0.833563     9.17957e-08     1.54474e-07
                    5.05407e-05     5.01657e-06    -3.02362e-07      -1.032e-06      5.1441e-07     1.83663e-07       0.0257014        0.830099
      4.99e+07        -0.240485        0.922866     -0.00542002       -0.017087     8.23301e-05     6.98546e-06     5.03212e-05      4.9275e-06
                    -0.00542294      -0.0169266       -0.874865       -0.420435    -1.42881e-06    -1.38707e-06    -3.07464e-07    -1.47216e-06
                    8.23289e-05     6.88592e-06     -1.1895e-06    -5.76795e-07       0.0282418        0.833481     9.42808e-08     1.55499e-07
                    5.07355e-05     4.67135e-06    -3.11197e-07    -1.03215e-06     5.18844e-07     1.78263e-07       0.0291456         0.83001
     4.992e+07        -0.231295        0.924983     -0.00558193      -0.0170907     8.27246e-05     6.42082e-06     5.05154e-05     4.58017e-06
                    -0.00558339      -0.0169298       -0.877863       -0.414255    -1.43751e-06    -1.38006e-06    -3.22512e-07    -1.47291e-06
                    8.27229e-05     6.31575e-06    -1.19843e-06    -5.76056e-07       0.0317078        0.833386     9.67836e-08      1.5646e-07
                    5.09282e-05     4.32339e-06    -3.20068e-07    -1.03223e-06     5.23197e-07      1.7272e-07       0.0325912        0.829908
     4.994e+07        -0.222076        0.927012     -0.00574443      -0.0170929     8.31169e-05     5.85043e-06     5.07074e-05     4.23005e-06
                     -0.0057444      -0.0169316       -0.880819       -0.408054    -1.44627e-06    -1.37304e-06    -3.37581e-07    -1.47342e-06
                    8.31146e-05      5.7398e-06    -1.20749e-06    -5.75284e-07       0.0351753        0.833277     9.93024e-08     1.57358e-07
                    5.11188e-05      3.9727e-06    -3.28976e-07    -1.03226e-06     5.27465e-07     1.67035e-07       0.0360381        0.829793
     4.996e+07        -0.212829        0.928951      -0.0059075      -0.0170938     8.35072e-05     5.27426e-06     5.08973e-05     3.87716e-06
                    -0.00590599      -0.0169319       -0.883733       -0.401831    -1.45508e-06    -1.36601e-06    -3.52668e-07    -1.47372e-06
                    8.35041e-05     5.15806e-06    -1.21667e-06    -5.74476e-07       0.0386442        0.833156     1.01836e-07     1.58192e-07
                    5.13072e-05     3.61929e-06     -3.3792e-07    -1.03223e-06     5.31646e-07     1.61209e-07       0.0394864        0.829665
     4.998e+07        -0.203554          0.9308     -0.00607113      -0.0170932     8.38953e-05      4.6923e-06      5.1085e-05     3.52151e-06
                    -0.00606813      -0.0169309       -0.886605       -0.395588    -1.46395e-06    -1.35897e-06    -3.67767e-07     -1.4738e-06
                    8.38913e-05     4.57051e-06    -1.22599e-06    -5.73628e-07       0.0421145        0.833021     1.04382e-07     1.58961e-07
                    5.14934e-05     3.26316e-06    -3.46901e-07    -1.03214e-06     5.35736e-07     1.55244e-07        0.042936        0.829524
         5e+07        -0.194254        0.932559     -0.00623532      -0.0170912     8.42812e-05     4.10452e-06     5.12705e-05     3.16311e-06
                    -0.00623081      -0.0169285       -0.889434       -0.389323    -1.47288e-06    -1.35191e-06    -3.82875e-07    -1.47365e-06
                     8.4276e-05     3.97714e-06    -1.23544e-06    -5.72737e-07       0.0455862        0.832872      1.0694e-07     1.59665e-07
                    5.16774e-05     2.90432e-06    -3.55919e-07    -1.03199e-06      5.3973e-07     1.49142e-07       0.0463869        0.829369
     5.002e+07        -0.184927        0.934227     -0.00640006      -0.0170878     8.46648e-05      3.5109e-06     5.14537e-05     2.80196e-06
                    -0.00639404      -0.0169246        -0.89222       -0.383039    -1.48187e-06    -1.34484e-06    -3.97989e-07    -1.47328e-06
                    8.46584e-05     3.37792e-06    -1.24502e-06      -5.718e-07       0.0490591        0.832711     1.09508e-07     1.60304e-07
                    5.18591e-05     2.54278e-06    -3.64974e-07    -1.03177e-06     5.43626e-07     1.42904e-07       0.0498391        0.829202
     5.004e+07        -0.175575        0.935805     -0.00656534      -0.0170829     8.50462e-05     2.91143e-06     5.16345e-05     2.43808e-06
                    -0.00655779      -0.0169193       -0.894964       -0.376734    -1.49093e-06    -1.33775e-06    -4.13104e-07    -1.47269e-06
                    8.50383e-05     2.77283e-06    -1.25474e-06    -5.70811e-07       0.0525334        0.832536     1.12083e-07     1.60877e-07
                    5.20386e-05     2.17856e-06    -3.74066e-07     -1.0315e-06      5.4742e-07     1.36533e-07       0.0532925        0.829021
     5.006e+07        -0.166199         0.93729     -0.00673114      -0.0170766     8.54252e-05     2.30609e-06     5.18131e-05     2.07147e-06
                    -0.00672207      -0.0169126       -0.897665        -0.37041    -1.50005e-06    -1.33063e-06    -4.28217e-07    -1.47188e-06
                    8.54157e-05     2.16187e-06    -1.26459e-06    -5.69767e-07        0.056009        0.832347     1.14666e-07     1.61385e-07
                    5.22157e-05     1.81166e-06    -3.83196e-07    -1.03116e-06     5.51109e-07      1.3003e-07       0.0567471        0.828826
     5.008e+07        -0.156799        0.938684     -0.00689746      -0.0170688     8.58018e-05     1.69484e-06     5.19893e-05     1.70215e-06
                    -0.00688685      -0.0169044       -0.900322       -0.364066    -1.50923e-06    -1.32349e-06    -4.43324e-07    -1.47085e-06
                    8.57906e-05     1.54501e-06    -1.27458e-06    -5.68666e-07       0.0594858        0.832145     1.17253e-07     1.61826e-07
                    5.23905e-05     1.44209e-06    -3.92363e-07    -1.03075e-06     5.54688e-07     1.23397e-07       0.0602029        0.828618
      5.01e+07        -0.147376        0.939986     -0.00706429      -0.0170595      8.6176e-05     1.07767e-06     5.21631e-05     1.33013e-06
                    -0.00705214      -0.0168947       -0.902937       -0.357702    -1.51849e-06    -1.31633e-06    -4.58421e-07     -1.4696e-06
                    8.61628e-05      9.2224e-07     -1.2847e-06    -5.67501e-07       0.0629638        0.831929     1.19844e-07     1.62202e-07
                    5.25629e-05     1.06987e-06    -4.01568e-07    -1.03028e-06     5.58155e-07     1.16637e-07       0.0636599        0.828397
     5.012e+07        -0.137931        0.941195     -0.00723162      -0.0170487     8.65477e-05     4.54565e-07     5.23345e-05     9.55415e-07
                    -0.00721791      -0.0168836       -0.905507        -0.35132    -1.52781e-06    -1.30914e-06    -4.73504e-07    -1.46813e-06
                    8.65324e-05     2.93535e-07    -1.29497e-06     -5.6627e-07        0.066443          0.8317     1.22437e-07     1.62511e-07
                    5.27329e-05     6.94994e-07     -4.1081e-07    -1.02975e-06     5.61507e-07     1.09751e-07       0.0671179        0.828162
     5.014e+07        -0.128465        0.942311     -0.00739944      -0.0170364     8.69168e-05    -1.74506e-07     5.25035e-05     5.78019e-07
                    -0.00738417       -0.016871       -0.908035       -0.344919    -1.53721e-06    -1.30191e-06    -4.88569e-07    -1.46644e-06
                    8.68993e-05    -3.41121e-07    -1.30537e-06    -5.64969e-07       0.0699233        0.831457      1.2503e-07     1.62753e-07
                    5.29004e-05     3.17484e-07    -4.20091e-07    -1.02914e-06      5.6474e-07     1.02742e-07        0.070577        0.827914
     5.016e+07        -0.118977        0.943333     -0.00756774      -0.0170227     8.72833e-05    -8.09562e-07     5.26699e-05     1.97955e-07
                     -0.0075509      -0.0168569       -0.910518         -0.3385    -1.54668e-06    -1.29465e-06    -5.03613e-07    -1.46453e-06
                    8.72634e-05    -9.81745e-07    -1.31592e-06    -5.63593e-07       0.0734047          0.8312     1.27621e-07      1.6293e-07
                    5.30655e-05    -6.26524e-08    -4.29409e-07    -1.02847e-06      5.6785e-07     9.56121e-08       0.0740372        0.827652
     5.018e+07        -0.109471        0.944262     -0.00773651      -0.0170074     8.76473e-05    -1.45063e-06     5.28339e-05    -1.84769e-07
                    -0.00771809      -0.0168413       -0.912957       -0.332062    -1.55622e-06    -1.28736e-06    -5.18632e-07     -1.4624e-06
                    8.76247e-05    -1.62836e-06     -1.3266e-06    -5.62138e-07       0.0768872        0.830929      1.3021e-07      1.6304e-07
                    5.32282e-05    -4.45404e-07    -4.38765e-07    -1.02773e-06     5.70836e-07      8.8364e-08       0.0774983        0.827376
      5.02e+07       -0.0999444        0.945096     -0.00790573      -0.0169905     8.80085e-05    -2.09772e-06     5.29952e-05    -5.70139e-07
                    -0.00788574      -0.0168242       -0.915352       -0.325607    -1.56584e-06    -1.28002e-06    -5.33622e-07    -1.46006e-06
                    8.79832e-05    -2.28097e-06    -1.33743e-06    -5.60601e-07       0.0803707        0.830644     1.32793e-07     1.63083e-07
                    5.33882e-05     -8.3076e-07    -4.48159e-07    -1.02692e-06     5.73692e-07         8.1e-08       0.0809605        0.827086
     5.022e+07       -0.0903999        0.945836     -0.00807541      -0.0169722      8.8367e-05    -2.75086e-06     5.31541e-05    -9.58144e-07
                    -0.00805383      -0.0168055       -0.917703       -0.319134    -1.57554e-06    -1.27264e-06    -5.48579e-07     -1.4575e-06
                    8.83387e-05    -2.93962e-06    -1.34839e-06    -5.58976e-07       0.0838551        0.830345      1.3537e-07     1.63061e-07
                    5.35458e-05    -1.21871e-06    -4.57591e-07    -1.02604e-06     5.76417e-07     7.35227e-08       0.0844235        0.826783
     5.024e+07       -0.0808378        0.946481     -0.00824552      -0.0169523     8.87226e-05    -3.41008e-06     5.33103e-05    -1.34877e-06
                    -0.00822235      -0.0167853        -0.92001       -0.312643    -1.58532e-06    -1.26521e-06      -5.635e-07    -1.45473e-06
                    8.86913e-05     -3.6043e-06     -1.3595e-06     -5.5726e-07       0.0873405        0.830033      1.3794e-07     1.62972e-07
                    5.37007e-05    -1.60924e-06    -4.67061e-07    -1.02509e-06     5.79007e-07     6.59349e-08       0.0878874        0.826466
     5.026e+07       -0.0712588         0.94703     -0.00841606      -0.0169308     8.90755e-05     -4.0754e-06     5.34638e-05    -1.74201e-06
                    -0.00839129      -0.0167636       -0.922271       -0.306136    -1.59518e-06    -1.25774e-06    -5.78382e-07    -1.45174e-06
                    8.90409e-05    -4.27505e-06    -1.37075e-06    -5.55449e-07       0.0908267        0.829706     1.40499e-07     1.62818e-07
                     5.3853e-05    -2.00234e-06    -4.76569e-07    -1.02406e-06     5.81459e-07     5.82392e-08       0.0913521        0.826135
     5.028e+07       -0.0616638        0.947484     -0.00858703      -0.0169078     8.94254e-05    -4.74684e-06     5.36147e-05    -2.13785e-06
                    -0.00856064      -0.0167404       -0.924488       -0.299612    -1.60512e-06    -1.25021e-06     -5.9322e-07    -1.44854e-06
                    8.93874e-05    -4.95188e-06    -1.38214e-06    -5.53538e-07       0.0943138        0.829365     1.43047e-07     1.62598e-07
                    5.40027e-05      -2.398e-06    -4.86114e-07    -1.02296e-06     5.83771e-07     5.04385e-08       0.0948176        0.825789
      5.03e+07       -0.0520534        0.947841     -0.00875839      -0.0168832     8.97724e-05    -5.42442e-06     5.37629e-05    -2.53627e-06
                    -0.00873039      -0.0167155        -0.92666       -0.293072    -1.61515e-06    -1.24263e-06    -6.08011e-07    -1.44513e-06
                    8.97307e-05    -5.63482e-06    -1.39367e-06    -5.51523e-07       0.0978016         0.82901     1.45583e-07     1.62312e-07
                    5.41497e-05    -2.79621e-06    -4.95697e-07    -1.02178e-06     5.85938e-07     4.25356e-08       0.0982838         0.82543
     5.032e+07       -0.0424286        0.948102     -0.00893016       -0.016857     9.01164e-05    -6.10817e-06     5.39083e-05    -2.93726e-06
                    -0.00890054      -0.0166891       -0.928787       -0.286516    -1.62526e-06    -1.23499e-06    -6.22751e-07    -1.44151e-06
                    9.00709e-05    -6.32387e-06    -1.40534e-06    -5.49399e-07         0.10129         0.82864     1.48104e-07     1.61962e-07
                     5.4294e-05    -3.19695e-06    -5.05318e-07    -1.02053e-06     5.87959e-07     3.45336e-08        0.101751        0.825057
     5.034e+07         -0.03279        0.948266     -0.00910231      -0.0168292     9.04574e-05    -6.79811e-06      5.4051e-05    -3.34082e-06
                    -0.00907107      -0.0166612       -0.930868       -0.279944    -1.63545e-06    -1.22729e-06    -6.37438e-07    -1.43768e-06
                    9.04079e-05    -7.01907e-06    -1.41716e-06    -5.47162e-07        0.104779        0.828257     1.50608e-07     1.61547e-07
                    5.44355e-05    -3.60021e-06    -5.14977e-07     -1.0192e-06     5.89831e-07     2.64355e-08        0.105218        0.824669
     5.036e+07       -0.0231384        0.948333     -0.00927484      -0.0167998     9.07952e-05    -7.49427e-06     5.41909e-05    -3.74692e-06
                    -0.00924196      -0.0166316       -0.932904       -0.273357    -1.64574e-06    -1.21952e-06    -6.52067e-07    -1.43365e-06
                    9.07416e-05    -7.72043e-06    -1.42912e-06    -5.44808e-07        0.108269        0.827859     1.53095e-07     1.61067e-07
                    5.45743e-05    -4.00598e-06    -5.24672e-07    -1.01779e-06     5.91551e-07     1.82443e-08        0.108686        0.824268
     5.038e+07       -0.0134748        0.948302     -0.00944773      -0.0167688     9.11299e-05    -8.19667e-06     5.43279e-05    -4.15555e-06
                    -0.00941322      -0.0166004       -0.934894       -0.266754    -1.65611e-06    -1.21169e-06    -6.66635e-07     -1.4294e-06
                     9.1072e-05    -8.42797e-06    -1.44121e-06    -5.42332e-07         0.11176        0.827446     1.55563e-07     1.60524e-07
                    5.47102e-05    -4.41425e-06    -5.34405e-07     -1.0163e-06     5.93116e-07     9.96338e-09        0.112155        0.823852
      5.04e+07      -0.00379978        0.948172     -0.00962098      -0.0167361     9.14613e-05    -8.90533e-06     5.44621e-05     -4.5667e-06
                    -0.00958482      -0.0165676       -0.936839       -0.260137    -1.66656e-06    -1.20378e-06    -6.81139e-07    -1.42496e-06
                     9.1399e-05    -9.14171e-06    -1.45345e-06     -5.3973e-07        0.115251        0.827019     1.58009e-07     1.59917e-07
                    5.48434e-05      -4.825e-06    -5.44175e-07    -1.01473e-06     5.94523e-07     1.59586e-09        0.115624        0.823421
     5.042e+07       0.00588574        0.947945     -0.00979457      -0.0167019     9.17895e-05    -9.62029e-06     5.45933e-05    -4.98035e-06
                    -0.00975676      -0.0165332       -0.938738       -0.253505    -1.67711e-06     -1.1958e-06    -6.95575e-07    -1.42031e-06
                    9.17225e-05    -9.86169e-06    -1.46583e-06    -5.36997e-07        0.118742        0.826577     1.60433e-07     1.59247e-07
                    5.49737e-05    -5.23823e-06    -5.53981e-07    -1.01307e-06     5.95771e-07    -6.85491e-09        0.119093        0.822977
     5.044e+07         0.015581        0.947618     -0.00996849      -0.0166659     9.21143e-05    -1.03416e-05     5.47217e-05     -5.3965e-06
                    -0.00992903      -0.0164972        -0.94059       -0.246859    -1.68775e-06    -1.18774e-06     -7.0994e-07    -1.41546e-06
                    9.20425e-05    -1.05879e-05    -1.47835e-06    -5.34129e-07        0.122234        0.826121     1.62833e-07     1.58515e-07
                     5.5101e-05    -5.65391e-06    -5.63824e-07    -1.01134e-06     5.96856e-07    -1.53855e-08        0.122563        0.822517
     5.046e+07        0.0252851        0.947193      -0.0101427      -0.0166284     9.24358e-05    -1.10692e-05     5.48471e-05    -5.81512e-06
                     -0.0101016      -0.0164595       -0.942397       -0.240199    -1.69848e-06     -1.1796e-06    -7.24231e-07    -1.41041e-06
                     9.2359e-05    -1.13204e-05    -1.49101e-06    -5.31121e-07        0.125726         0.82565     1.65207e-07     1.57721e-07
                    5.52255e-05    -6.07203e-06    -5.73703e-07    -1.00952e-06     5.97777e-07    -2.39926e-08        0.126033        0.822044
     5.048e+07        0.0349973        0.946668      -0.0103173      -0.0165891     9.27538e-05    -1.18032e-05     5.49694e-05     -6.2362e-06
                     -0.0102745      -0.0164202       -0.944157       -0.233526     -1.7093e-06    -1.17137e-06    -7.38444e-07    -1.40517e-06
                    9.26718e-05    -1.20592e-05    -1.50381e-06    -5.27968e-07        0.129218        0.825164     1.67554e-07     1.56866e-07
                     5.5347e-05    -6.49259e-06    -5.83618e-07    -1.00761e-06      5.9853e-07    -3.26725e-08        0.129503        0.821555
      5.05e+07        0.0447168        0.946043      -0.0104921      -0.0165482     9.30683e-05    -1.25435e-05     5.50888e-05    -6.65973e-06
                     -0.0104477      -0.0163792        -0.94587       -0.226839    -1.72021e-06    -1.16305e-06    -7.52577e-07    -1.39973e-06
                     9.2981e-05    -1.28043e-05    -1.51674e-06    -5.24667e-07         0.13271        0.824664     1.69872e-07     1.55951e-07
                    5.54655e-05    -6.91557e-06    -5.93568e-07    -1.00561e-06     5.99114e-07    -4.14218e-08        0.132974        0.821052
     5.052e+07        0.0544426        0.945317      -0.0106673      -0.0165056     9.33792e-05    -1.32903e-05     5.52051e-05     -7.0857e-06
                     -0.0106211      -0.0163365       -0.947537        -0.22014    -1.73121e-06    -1.15464e-06    -7.66626e-07    -1.39409e-06
                    9.32864e-05    -1.35557e-05    -1.52981e-06    -5.21212e-07        0.136203        0.824149      1.7216e-07     1.54976e-07
                     5.5581e-05    -7.34094e-06    -6.03553e-07    -1.00353e-06     5.99527e-07    -5.02367e-08        0.136444        0.820534
     5.054e+07        0.0641741        0.944491      -0.0108427      -0.0164613     9.36865e-05    -1.40436e-05     5.53183e-05    -7.51407e-06
                     -0.0107949      -0.0162922       -0.949157       -0.213428    -1.74231e-06    -1.14614e-06    -7.80588e-07    -1.38827e-06
                    9.35881e-05    -1.43135e-05    -1.54302e-06    -5.17598e-07        0.139696        0.823618     1.74416e-07     1.53942e-07
                    5.56934e-05    -7.76871e-06    -6.13573e-07    -1.00136e-06     5.99765e-07    -5.91137e-08        0.139915        0.820002
     5.056e+07        0.0739102        0.943564      -0.0110183      -0.0164152     9.39901e-05    -1.48033e-05     5.54284e-05    -7.94485e-06
                     -0.0109688      -0.0162462        -0.95073       -0.206703     -1.7535e-06    -1.13753e-06     -7.9446e-07    -1.38226e-06
                    9.38859e-05    -1.50776e-05    -1.55636e-06    -5.13822e-07        0.143188        0.823073     1.76639e-07      1.5285e-07
                    5.58028e-05    -8.19885e-06    -6.23627e-07    -9.99092e-07     5.99828e-07    -6.80489e-08        0.143385        0.819455
     5.058e+07        0.0836503        0.942535      -0.0111942      -0.0163675       9.429e-05    -1.55695e-05     5.55353e-05    -8.37801e-06
                     -0.0111431      -0.0161984       -0.952256       -0.199967    -1.76478e-06    -1.12882e-06    -8.08239e-07    -1.37606e-06
                    9.41798e-05    -1.58482e-05    -1.56983e-06    -5.09879e-07        0.146681        0.822513     1.78827e-07     1.51701e-07
                     5.5909e-05    -8.63136e-06    -6.33715e-07    -9.96735e-07     5.99714e-07    -7.70385e-08        0.146855        0.818893
      5.06e+07        0.0933933        0.941405      -0.0113704       -0.016318     9.45861e-05    -1.63423e-05      5.5639e-05    -8.81355e-06
                     -0.0113175       -0.016149       -0.953735        -0.19322    -1.77616e-06       -1.12e-06    -8.21923e-07    -1.36967e-06
                    9.44697e-05    -1.66252e-05    -1.58343e-06    -5.05763e-07        0.150173        0.821937     1.80979e-07     1.50495e-07
                    5.60121e-05     -9.0662e-06    -6.43836e-07    -9.94285e-07     5.99419e-07    -8.60787e-08        0.150326        0.818316
     5.062e+07         0.103138        0.940173      -0.0115468      -0.0162668     9.48783e-05    -1.71216e-05     5.57395e-05    -9.25143e-06
                     -0.0114922      -0.0160978       -0.955166       -0.186461    -1.78763e-06    -1.11107e-06    -8.35508e-07     -1.3631e-06
                    9.47556e-05    -1.74087e-05    -1.59717e-06    -5.01471e-07        0.153665        0.821347     1.83093e-07     1.49234e-07
                     5.6112e-05    -9.50338e-06     -6.5399e-07    -9.91739e-07     5.98944e-07    -9.51656e-08        0.153795        0.817724
     5.064e+07         0.112885        0.938838      -0.0117234      -0.0162139     9.51665e-05    -1.79075e-05     5.58368e-05    -9.69165e-06
                     -0.0116671      -0.0160449        -0.95655       -0.179692     -1.7992e-06    -1.10202e-06    -8.48991e-07    -1.35635e-06
                    9.50374e-05    -1.81986e-05    -1.61103e-06    -4.96997e-07        0.157156        0.820741     1.85168e-07     1.47918e-07
                    5.62087e-05    -9.94287e-06    -6.64175e-07    -9.89097e-07     5.98285e-07    -1.04295e-07        0.157265        0.817116
     5.066e+07         0.122632          0.9374      -0.0119002      -0.0161592     9.54508e-05       -1.87e-05     5.59307e-05    -1.01342e-05
                     -0.0118422      -0.0159903       -0.957887       -0.172912    -1.81086e-06    -1.09285e-06     -8.6237e-07    -1.34943e-06
                     9.5315e-05    -1.89951e-05    -1.62502e-06    -4.92338e-07        0.160648         0.82012     1.87203e-07     1.46549e-07
                    5.63022e-05    -1.03847e-05    -6.74393e-07    -9.86357e-07     5.97442e-07    -1.13463e-07        0.160734        0.816494
     5.068e+07         0.132378        0.935859      -0.0120772      -0.0161027      9.5731e-05    -1.94992e-05     5.60213e-05     -1.0579e-05
                     -0.0120175      -0.0159339       -0.959175       -0.166121    -1.82261e-06    -1.08356e-06    -8.75642e-07    -1.34233e-06
                    9.55884e-05    -1.97981e-05    -1.63914e-06    -4.87487e-07        0.164138        0.819484     1.89196e-07     1.45128e-07
                    5.63924e-05    -1.08287e-05    -6.84641e-07    -9.83519e-07     5.96412e-07    -1.22666e-07        0.164202        0.815857
      5.07e+07         0.142123        0.934214      -0.0122543      -0.0160444      9.6007e-05     -2.0305e-05     5.61086e-05    -1.10262e-05
                      -0.012193      -0.0158757       -0.960416       -0.159321    -1.83446e-06    -1.07414e-06    -8.88805e-07    -1.33505e-06
                    9.58575e-05    -2.06076e-05    -1.65338e-06    -4.82441e-07        0.167628        0.818832     1.91146e-07     1.43655e-07
                    5.64792e-05    -1.12751e-05    -6.94919e-07     -9.8058e-07     5.95195e-07      -1.319e-07         0.16767        0.815204
     5.072e+07         0.151866        0.932466      -0.0124316      -0.0159844     9.62789e-05    -2.11176e-05     5.61925e-05    -1.14755e-05
                     -0.0123686      -0.0158158       -0.961609       -0.152512     -1.8464e-06    -1.06459e-06    -9.01855e-07    -1.32761e-06
                    9.61222e-05    -2.14237e-05    -1.66774e-06    -4.77196e-07        0.171118        0.818165     1.93051e-07     1.42132e-07
                    5.65627e-05    -1.17237e-05    -7.05226e-07    -9.77539e-07     5.93788e-07    -1.41159e-07        0.171137        0.814537
     5.074e+07         0.161605        0.930613      -0.0126091      -0.0159226     9.65464e-05    -2.19369e-05     5.62729e-05    -1.19272e-05
                     -0.0125443      -0.0157541       -0.962753       -0.145694    -1.85843e-06    -1.05491e-06    -9.14791e-07    -1.31999e-06
                    9.63825e-05    -2.22464e-05    -1.68221e-06    -4.71745e-07        0.174606        0.817483     1.94911e-07     1.40559e-07
                    5.66429e-05    -1.21745e-05    -7.15563e-07    -9.74395e-07     5.92191e-07    -1.50441e-07        0.174603        0.813854
     5.076e+07         0.171341        0.928655      -0.0127867      -0.0158589     9.68097e-05     -2.2763e-05     5.63499e-05    -1.23811e-05
                     -0.0127202      -0.0156906        -0.96385       -0.138866    -1.87055e-06    -1.04508e-06    -9.27609e-07    -1.31222e-06
                    9.66383e-05    -2.30758e-05    -1.69681e-06    -4.66085e-07        0.178094        0.816785     1.96723e-07     1.38939e-07
                    5.67196e-05    -1.26276e-05    -7.25927e-07    -9.71147e-07     5.90403e-07    -1.59741e-07        0.178068        0.813155
     5.078e+07         0.181071        0.926592      -0.0129645      -0.0157934     9.70685e-05    -2.35958e-05     5.64233e-05    -1.28371e-05
                     -0.0128962      -0.0156253       -0.964898       -0.132031    -1.88277e-06    -1.03511e-06    -9.40308e-07    -1.30428e-06
                    9.68896e-05    -2.39119e-05    -1.71152e-06    -4.60212e-07        0.181581        0.816071     1.98488e-07     1.37272e-07
                    5.67929e-05    -1.30828e-05    -7.36318e-07    -9.67792e-07     5.88422e-07    -1.69055e-07        0.181533        0.812441
      5.08e+07         0.190796        0.924424      -0.0131423      -0.0157261     9.73229e-05    -2.44355e-05     5.64933e-05    -1.32954e-05
                     -0.0130724      -0.0155581       -0.965898       -0.125187    -1.89508e-06    -1.02499e-06    -9.52885e-07    -1.29618e-06
                    9.71362e-05    -2.47546e-05    -1.72635e-06    -4.54119e-07        0.185067        0.815342     2.00202e-07      1.3556e-07
                    5.68626e-05    -1.35403e-05    -7.46736e-07    -9.64331e-07     5.86246e-07    -1.78378e-07        0.184996        0.811712
     5.082e+07         0.200513         0.92215      -0.0133203       -0.015657     9.75726e-05    -2.52821e-05     5.65596e-05    -1.37559e-05
                     -0.0132486      -0.0154892       -0.966849       -0.118336    -1.90748e-06    -1.01472e-06    -9.65338e-07    -1.28792e-06
                    9.73782e-05     -2.5604e-05    -1.74128e-06    -4.47803e-07        0.188551        0.814597     2.01867e-07     1.33803e-07
                    5.69289e-05    -1.39999e-05    -7.57178e-07    -9.60761e-07     5.83877e-07    -1.87706e-07        0.188458        0.810967
     5.084e+07         0.210223         0.91977      -0.0134983       -0.015586     9.78178e-05    -2.61356e-05     5.66224e-05    -1.42185e-05
                     -0.0134249      -0.0154184       -0.967752       -0.111478    -1.91996e-06    -1.00429e-06    -9.77664e-07     -1.2795e-06
                    9.76153e-05    -2.64602e-05    -1.75632e-06     -4.4126e-07        0.192035        0.813837     2.03479e-07     1.32004e-07
                    5.69916e-05    -1.44616e-05    -7.67645e-07    -9.57081e-07     5.81311e-07    -1.97034e-07        0.191919        0.810207
     5.086e+07         0.219923        0.917284      -0.0136764      -0.0155131     9.80583e-05     -2.6996e-05     5.66815e-05    -1.46832e-05
                     -0.0136012      -0.0153458       -0.968606       -0.104613    -1.93254e-06    -9.93696e-07    -9.89862e-07    -1.27094e-06
                    9.78476e-05    -2.73232e-05    -1.77147e-06    -4.34484e-07        0.195517         0.81306     2.05039e-07     1.30163e-07
                    5.70508e-05    -1.49255e-05    -7.78136e-07     -9.5329e-07      5.7855e-07    -2.06359e-07        0.195379        0.809431
     5.088e+07         0.229615         0.91469      -0.0138545      -0.0154383     9.82939e-05    -2.78633e-05     5.67369e-05    -1.51501e-05
                     -0.0137776      -0.0152713       -0.969411      -0.0977412     -1.9452e-06     -9.8294e-07    -1.00193e-06    -1.26223e-06
                     9.8075e-05     -2.8193e-05    -1.78672e-06    -4.27471e-07        0.198997        0.812268     2.06544e-07     1.28282e-07
                    5.71063e-05    -1.53915e-05    -7.88649e-07    -9.49386e-07     5.75591e-07    -2.15675e-07        0.198837        0.808639
      5.09e+07         0.239295         0.91199      -0.0140327      -0.0153617     9.85248e-05    -2.87377e-05     5.67886e-05     -1.5619e-05
                     -0.0139541      -0.0151949       -0.970167      -0.0908634    -1.95796e-06    -9.72014e-07    -1.01386e-06    -1.25337e-06
                    9.82974e-05    -2.90696e-05    -1.80207e-06    -4.20216e-07        0.202476         0.81146     2.07995e-07     1.26362e-07
                    5.71581e-05    -1.58596e-05    -7.99183e-07    -9.45368e-07     5.72435e-07    -2.24979e-07        0.202293        0.807832
     5.092e+07         0.248963        0.909182      -0.0142109      -0.0152832     9.87506e-05    -2.96191e-05     5.68366e-05    -1.60901e-05
                     -0.0141306      -0.0151167       -0.970874      -0.0839798    -1.97079e-06    -9.60914e-07    -1.02566e-06    -1.24437e-06
                    9.85148e-05    -2.99531e-05    -1.81751e-06    -4.12715e-07        0.205953        0.810636     2.09389e-07     1.24406e-07
                    5.72063e-05    -1.63298e-05    -8.09737e-07    -9.41235e-07      5.6908e-07    -2.34266e-07        0.205748        0.807009
     5.094e+07         0.258619        0.906266      -0.0143892      -0.0152028     9.89715e-05    -3.05075e-05     5.68808e-05    -1.65631e-05
                     -0.0143071      -0.0150365       -0.971531       -0.077091    -1.98371e-06    -9.49635e-07    -1.03733e-06    -1.23523e-06
                    9.87269e-05    -3.08435e-05    -1.83305e-06    -4.04964e-07        0.209429        0.809796     2.10727e-07     1.22413e-07
                    5.72507e-05     -1.6802e-05    -8.20311e-07    -9.36985e-07     5.65528e-07    -2.43531e-07        0.209201         0.80617
     5.096e+07         0.268261        0.903242      -0.0145674      -0.0151204     9.91873e-05    -3.14031e-05     5.69211e-05    -1.70383e-05
                     -0.0144836      -0.0149545        -0.97214      -0.0701971    -1.99671e-06    -9.38173e-07    -1.04885e-06    -1.22595e-06
                    9.89339e-05    -3.17409e-05    -1.84868e-06    -3.96957e-07        0.212903        0.808941     2.12006e-07     1.20386e-07
                    5.72913e-05    -1.72762e-05    -8.30902e-07    -9.32617e-07     5.61777e-07    -2.52769e-07        0.212653        0.805315
     5.098e+07         0.277888        0.900109      -0.0147456      -0.0150361     9.93979e-05    -3.23058e-05     5.69576e-05    -1.75154e-05
                       -0.01466      -0.0148706         -0.9727      -0.0632987     -2.0098e-06    -9.26524e-07    -1.06023e-06    -1.21654e-06
                    9.91355e-05    -3.26452e-05    -1.86439e-06     -3.8869e-07        0.216374        0.808069     2.13227e-07     1.18326e-07
                    5.73281e-05    -1.77525e-05     -8.4151e-07    -9.28129e-07     5.57826e-07    -2.61977e-07        0.216102        0.804445
       5.1e+07           0.2875        0.896867      -0.0149238      -0.0149499     9.96032e-05    -3.32156e-05     5.69902e-05    -1.79945e-05
                     -0.0148364      -0.0147847        -0.97321      -0.0563962    -2.02296e-06    -9.14683e-07    -1.07148e-06    -1.20699e-06
                    9.93318e-05    -3.35565e-05    -1.88019e-06    -3.80159e-07        0.219844        0.807181     2.14388e-07     1.16235e-07
                    5.73611e-05    -1.82308e-05    -8.52133e-07    -9.23521e-07     5.53677e-07    -2.71149e-07        0.219549        0.803559
     5.102e+07         0.297094        0.893516      -0.0151019      -0.0148618     9.98031e-05    -3.41327e-05     5.70189e-05    -1.84755e-05
                     -0.0150128      -0.0146969        -0.97367      -0.0494898     -2.0362e-06    -9.02646e-07    -1.08258e-06    -1.19732e-06
                    9.95225e-05    -3.44748e-05    -1.89607e-06     -3.7136e-07        0.223311        0.806277     2.15488e-07     1.14114e-07
                    5.73903e-05     -1.8711e-05     -8.6277e-07     -9.1879e-07     5.49329e-07    -2.80282e-07        0.222994        0.802656
     5.104e+07         0.306671        0.890055        -0.01528      -0.0147716     9.99977e-05     -3.5057e-05     5.70435e-05    -1.89585e-05
                     -0.0151891      -0.0146072       -0.974081        -0.04258    -2.04952e-06    -8.90409e-07    -1.09353e-06    -1.18752e-06
                    9.97077e-05    -3.54002e-05    -1.91202e-06    -3.62287e-07        0.226777        0.805357     2.16527e-07     1.11966e-07
                    5.74154e-05    -1.91932e-05    -8.73421e-07    -9.13936e-07     5.44782e-07     -2.8937e-07        0.226437        0.801738
     5.106e+07         0.316229        0.886485      -0.0154579      -0.0146795     0.000100187    -3.59886e-05     5.70642e-05    -1.94435e-05
                     -0.0153654      -0.0145155       -0.974443      -0.0356672    -2.06291e-06    -8.77966e-07    -1.10434e-06    -1.17761e-06
                    9.98873e-05    -3.63326e-05    -1.92805e-06    -3.52937e-07        0.230239        0.804421     2.17504e-07     1.09791e-07
                    5.74367e-05    -1.96773e-05    -8.84082e-07    -9.08957e-07     5.40037e-07    -2.98408e-07        0.229877        0.800804
     5.108e+07         0.325766        0.882804      -0.0156358      -0.0145855      0.00010037    -3.69276e-05     5.70808e-05    -1.99303e-05
                     -0.0155415      -0.0144218       -0.974755      -0.0287518    -2.07638e-06    -8.65314e-07      -1.115e-06    -1.16757e-06
                    0.000100061    -3.72722e-05    -1.94414e-06    -3.43305e-07        0.233699        0.803468     2.18418e-07     1.07591e-07
                    5.74539e-05    -2.01633e-05    -8.94753e-07    -9.03852e-07     5.35093e-07    -3.07393e-07        0.233315        0.799853
      5.11e+07         0.335283        0.879012      -0.0158136      -0.0144894     0.000100548    -3.78738e-05     5.70933e-05     -2.0419e-05
                     -0.0157175      -0.0143262       -0.975017      -0.0218342    -2.08991e-06    -8.52447e-07    -1.12551e-06    -1.15742e-06
                    0.000100229     -3.8219e-05     -1.9603e-06    -3.33387e-07        0.237157          0.8025     2.19268e-07     1.05369e-07
                    5.74671e-05    -2.06512e-05    -9.05433e-07     -8.9862e-07     5.29952e-07    -3.16319e-07         0.23675        0.798887
     5.112e+07         0.344777        0.875109      -0.0159913      -0.0143913      0.00010072    -3.88275e-05     5.71017e-05    -2.09095e-05
                     -0.0158934      -0.0142286       -0.975229      -0.0149148    -2.10352e-06    -8.39362e-07    -1.13587e-06    -1.14716e-06
                    0.000100391     -3.9173e-05    -1.97652e-06    -3.23178e-07        0.240611        0.801515     2.20054e-07     1.03125e-07
                    5.74762e-05     -2.1141e-05     -9.1612e-07    -8.93259e-07     5.24613e-07    -3.25182e-07        0.240182        0.797905
     5.114e+07         0.354248        0.871095      -0.0161688      -0.0142912     0.000100886    -3.97886e-05     5.71058e-05    -2.14018e-05
                     -0.0160692      -0.0141289       -0.975392     -0.00799407    -2.11719e-06    -8.26055e-07    -1.14608e-06    -1.13678e-06
                    0.000100547    -4.01342e-05     -1.9928e-06    -3.12675e-07        0.244063        0.800513     2.20775e-07     1.00861e-07
                    5.74812e-05    -2.16326e-05    -9.26812e-07    -8.87767e-07     5.19077e-07    -3.33977e-07        0.243611        0.796906
     5.116e+07         0.363695        0.866969      -0.0163461      -0.0141891     0.000101046    -4.07572e-05     5.71058e-05    -2.18959e-05
                     -0.0162448      -0.0140273       -0.975505     -0.00107231    -2.13092e-06    -8.12519e-07    -1.15613e-06    -1.12631e-06
                    0.000100697    -4.11027e-05    -2.00913e-06    -3.01872e-07        0.247512        0.799496     2.21431e-07     9.85799e-08
                     5.7482e-05     -2.2126e-05    -9.37507e-07    -8.82145e-07     5.13345e-07      -3.427e-07        0.247038        0.795891
     5.118e+07         0.373116        0.862731      -0.0165233      -0.0140849     0.000101199    -4.17333e-05     5.71015e-05    -2.23918e-05
                     -0.0164202      -0.0139236       -0.975567      0.00585004    -2.14471e-06    -7.98752e-07    -1.16604e-06    -1.11573e-06
                    0.000100841    -4.20784e-05    -2.02551e-06    -2.90767e-07        0.250958        0.798462     2.22021e-07     9.62825e-08
                    5.74786e-05    -2.26211e-05    -9.48205e-07     -8.7639e-07     5.07418e-07    -3.51345e-07        0.250461        0.794861
      5.12e+07          0.38251        0.858381      -0.0167002      -0.0139787     0.000101347    -4.27169e-05     5.70929e-05    -2.28894e-05
                     -0.0165954      -0.0138179        -0.97558       0.0127725    -2.15857e-06    -7.84748e-07    -1.17578e-06    -1.10505e-06
                    0.000100979    -4.30615e-05    -2.04193e-06    -2.79354e-07          0.2544        0.797412     2.22545e-07     9.39708e-08
                     5.7471e-05    -2.31181e-05    -9.58903e-07    -8.70502e-07     5.01296e-07    -3.59909e-07        0.253881        0.793814
     5.122e+07         0.391876        0.853918       -0.016877      -0.0138704     0.000101488    -4.37082e-05       5.708e-05    -2.33887e-05
                     -0.0167704      -0.0137102       -0.975543       0.0196948    -2.17248e-06    -7.70503e-07    -1.18538e-06    -1.09427e-06
                     0.00010111     -4.4052e-05    -2.05839e-06     -2.6763e-07        0.257839        0.796345     2.23002e-07     9.16467e-08
                    5.74591e-05    -2.36168e-05      -9.696e-07    -8.64478e-07     4.94982e-07    -3.68386e-07        0.257298         0.79275
     5.124e+07         0.401213        0.849342      -0.0170535        -0.01376     0.000101623     -4.4707e-05     5.70627e-05    -2.38897e-05
                     -0.0169452      -0.0136004       -0.975456       0.0266164    -2.18644e-06    -7.56013e-07    -1.19481e-06     -1.0834e-06
                    0.000101234    -4.50499e-05    -2.07489e-06    -2.55591e-07        0.261274        0.795262     2.23392e-07     8.93119e-08
                    5.74429e-05    -2.41172e-05    -9.80294e-07    -8.58319e-07     4.88475e-07    -3.76773e-07        0.260711        0.791671
     5.126e+07          0.41052        0.844653      -0.0172298      -0.0136476     0.000101752    -4.57136e-05     5.70409e-05    -2.43924e-05
                     -0.0171197      -0.0134885       -0.975319       0.0335369    -2.20045e-06    -7.41272e-07    -1.20409e-06    -1.07245e-06
                    0.000101352    -4.60553e-05    -2.09141e-06    -2.43232e-07        0.264706        0.794163     2.23715e-07     8.69683e-08
                    5.74223e-05    -2.46192e-05    -9.90982e-07    -8.52022e-07     4.81777e-07    -3.85063e-07         0.26412        0.790575
     5.128e+07         0.419795         0.83985      -0.0174058       -0.013533     0.000101874    -4.67278e-05     5.70147e-05    -2.48966e-05
                      -0.017294      -0.0133746       -0.975131       0.0404559    -2.21451e-06    -7.26277e-07    -1.21321e-06     -1.0614e-06
                    0.000101464    -4.70681e-05    -2.10797e-06     -2.3055e-07        0.268134        0.793047     2.23969e-07     8.46177e-08
                    5.73973e-05    -2.51229e-05    -1.00166e-06    -8.45586e-07     4.74889e-07    -3.93253e-07        0.267526        0.789463
      5.13e+07         0.429038        0.834933      -0.0175815      -0.0134164     0.000101989    -4.77498e-05      5.6984e-05    -2.54024e-05
                     -0.0174679      -0.0132585       -0.974894        0.047373    -2.22861e-06    -7.11023e-07    -1.22217e-06    -1.05028e-06
                    0.000101568    -4.80885e-05    -2.12454e-06     -2.1754e-07        0.271558        0.791915     2.24156e-07     8.22621e-08
                    5.73678e-05    -2.56283e-05    -1.01234e-06    -8.39012e-07     4.67814e-07    -4.01338e-07        0.270928        0.788335
     5.132e+07         0.438247        0.829902       -0.017757      -0.0132976     0.000102097    -4.87795e-05     5.69487e-05    -2.59098e-05
                     -0.0176416      -0.0131404       -0.974607       0.0542878    -2.24276e-06    -6.95505e-07    -1.23098e-06    -1.03907e-06
                    0.000101666    -4.91164e-05    -2.14112e-06      -2.042e-07        0.274978        0.790767     2.24275e-07     7.99032e-08
                    5.73339e-05    -2.61352e-05      -1.023e-06    -8.32296e-07     4.60551e-07    -4.09313e-07        0.274326         0.78719
     5.134e+07          0.44742        0.824756      -0.0179321      -0.0131767     0.000102198    -4.98172e-05     5.69088e-05    -2.64187e-05
                     -0.0178149      -0.0130201       -0.974269       0.0611998    -2.25694e-06    -6.79719e-07    -1.23962e-06    -1.02779e-06
                    0.000101757    -5.01519e-05    -2.15772e-06    -1.90524e-07        0.278394        0.789601     2.24325e-07     7.75431e-08
                    5.72954e-05    -2.66436e-05    -1.03365e-06    -8.25439e-07     4.53104e-07    -4.17174e-07        0.277719        0.786029
     5.136e+07         0.456557        0.819495      -0.0181068      -0.0130536     0.000102293    -5.08626e-05     5.68643e-05    -2.69291e-05
                     -0.0179879      -0.0128977       -0.973881       0.0681086    -2.27115e-06    -6.63661e-07    -1.24811e-06    -1.01644e-06
                     0.00010184    -5.11951e-05    -2.17432e-06    -1.76509e-07        0.281805         0.78842     2.24307e-07     7.51835e-08
                    5.72522e-05    -2.71536e-05    -1.04428e-06    -8.18439e-07     4.45473e-07    -4.24916e-07        0.281109        0.784852
     5.138e+07         0.465656        0.814119      -0.0182812      -0.0129284      0.00010238     -5.1916e-05     5.68151e-05     -2.7441e-05
                     -0.0181606      -0.0127732       -0.973443       0.0750138     -2.2854e-06    -6.47326e-07    -1.25643e-06    -1.00502e-06
                    0.000101916    -5.22459e-05    -2.19092e-06    -1.62152e-07        0.285212        0.787222      2.2422e-07     7.28264e-08
                    5.72045e-05    -2.76651e-05     -1.0549e-06    -8.11295e-07      4.3766e-07    -4.32535e-07        0.284494        0.783659
      5.14e+07         0.474716        0.808627      -0.0184552       -0.012801     0.000102459    -5.29774e-05     5.67611e-05    -2.79542e-05
                     -0.0183328      -0.0126465       -0.972955        0.081915    -2.29967e-06    -6.30709e-07    -1.26459e-06     -9.9353e-07
                    0.000101985    -5.33044e-05    -2.20751e-06    -1.47449e-07        0.288615        0.786007     2.24065e-07     7.04737e-08
                    5.71521e-05    -2.81781e-05     -1.0655e-06    -8.04007e-07     4.29668e-07    -4.40025e-07        0.287874        0.782449
     5.142e+07         0.483736         0.80302      -0.0186288      -0.0126715     0.000102532    -5.40467e-05     5.67024e-05    -2.84689e-05
                     -0.0185047      -0.0125177       -0.972417       0.0888117    -2.31397e-06    -6.13806e-07     -1.2726e-06    -9.81979e-07
                    0.000102046    -5.43707e-05     -2.2241e-06    -1.32397e-07        0.292012        0.784776     2.23841e-07     6.81274e-08
                    5.70949e-05    -2.86925e-05    -1.07608e-06    -7.96573e-07     4.21499e-07    -4.47384e-07         0.29125        0.781223
     5.144e+07         0.492713        0.797296       -0.018802      -0.0125397     0.000102596    -5.51241e-05     5.66388e-05    -2.89848e-05
                     -0.0186761      -0.0123867       -0.971829       0.0957035    -2.32828e-06    -5.96612e-07    -1.28044e-06    -9.70368e-07
                      0.0001021    -5.54448e-05    -2.24066e-06    -1.16991e-07        0.295405        0.783529     2.23549e-07     6.57893e-08
                     5.7033e-05    -2.92082e-05    -1.08663e-06    -7.88992e-07     4.13154e-07    -4.54605e-07         0.29462         0.77998
     5.146e+07         0.501648        0.791456      -0.0189747      -0.0124058     0.000102653    -5.62095e-05     5.65703e-05    -2.95021e-05
                     -0.0188471      -0.0122535        -0.97119         0.10259    -2.34261e-06    -5.79124e-07    -1.28812e-06    -9.58702e-07
                    0.000102146    -5.65268e-05     -2.2572e-06    -1.01228e-07        0.298793        0.782265     2.23189e-07     6.34615e-08
                    5.69662e-05    -2.97254e-05    -1.09716e-06    -7.81263e-07     4.04636e-07    -4.61685e-07        0.297986        0.778722
     5.148e+07         0.510538          0.7855       -0.019147      -0.0122696     0.000102702    -5.73031e-05      5.6497e-05    -3.00206e-05
                     -0.0190176      -0.0121181       -0.970502        0.109471    -2.35696e-06    -5.61336e-07    -1.29565e-06    -9.46983e-07
                    0.000102184    -5.76166e-05    -2.27371e-06    -8.51049e-08        0.302176        0.780985     2.22761e-07     6.11458e-08
                    5.68945e-05    -3.02438e-05    -1.10766e-06    -7.73387e-07     3.95947e-07    -4.68619e-07        0.301347        0.777447
      5.15e+07         0.519382        0.779426      -0.0193188      -0.0121312     0.000102743    -5.84048e-05     5.64186e-05    -3.05404e-05
                     -0.0191876      -0.0119804       -0.969763        0.116345     -2.3713e-06    -5.43245e-07    -1.30301e-06    -9.35214e-07
                    0.000102214    -5.87143e-05    -2.29019e-06    -6.86185e-08        0.305553        0.779688     2.22266e-07     5.88442e-08
                     5.6818e-05    -3.07635e-05    -1.11812e-06    -7.65361e-07      3.8709e-07    -4.75403e-07        0.304703        0.776155
     5.152e+07         0.528179        0.773235        -0.01949      -0.0119905     0.000102776    -5.95147e-05     5.63352e-05    -3.10613e-05
                     -0.0193572      -0.0118406       -0.968975        0.123213    -2.38565e-06    -5.24846e-07    -1.31021e-06      -9.234e-07
                    0.000102236    -5.98199e-05    -2.30663e-06    -5.17654e-08        0.308925        0.778375     2.21702e-07     5.65587e-08
                    5.67364e-05    -3.12845e-05    -1.12856e-06    -7.57185e-07     3.78067e-07    -4.82032e-07        0.308053        0.774848
     5.154e+07         0.536927        0.766927      -0.0196607      -0.0118476     0.000102801    -6.06329e-05     5.62468e-05    -3.15834e-05
                     -0.0195261      -0.0116985       -0.968136        0.130074        -2.4e-06    -5.06134e-07    -1.31725e-06    -9.11542e-07
                     0.00010225    -6.09336e-05    -2.32302e-06    -3.45422e-08        0.312291        0.777045     2.21072e-07     5.42913e-08
                    5.66499e-05    -3.18066e-05    -1.13896e-06    -7.48858e-07     3.68881e-07    -4.88502e-07        0.311397        0.773524
     5.156e+07         0.545625        0.760501      -0.0198309      -0.0117025     0.000102818    -6.17594e-05     5.61532e-05    -3.21066e-05
                     -0.0196946      -0.0115542       -0.967248        0.136927    -2.41434e-06    -4.87106e-07    -1.32414e-06    -8.99645e-07
                    0.000102255    -6.20552e-05    -2.33935e-06    -1.69459e-08        0.315652        0.775699     2.20375e-07     5.20438e-08
                    5.65582e-05    -3.23299e-05    -1.14932e-06    -7.40379e-07     3.59535e-07    -4.94808e-07        0.314736        0.772184
     5.158e+07         0.554271        0.753957      -0.0200005       -0.011555     0.000102826    -6.28942e-05     5.60545e-05    -3.26308e-05
                     -0.0198624      -0.0114076        -0.96631        0.143772    -2.42867e-06    -4.67756e-07    -1.33086e-06    -8.87712e-07
                    0.000102252     -6.3185e-05    -2.35563e-06     1.02667e-09        0.319007        0.774337     2.19612e-07     4.98182e-08
                    5.64615e-05    -3.28544e-05    -1.15964e-06    -7.31749e-07     3.50031e-07    -5.00947e-07         0.31807        0.770827
      5.16e+07         0.562864        0.747294      -0.0201695      -0.0114053     0.000102825    -6.40373e-05     5.59506e-05     -3.3156e-05
                     -0.0200297      -0.0112588       -0.965321        0.150609    -2.44299e-06    -4.48081e-07    -1.33743e-06    -8.75746e-07
                     0.00010224    -6.43228e-05    -2.37184e-06     1.93785e-08        0.322356        0.772958     2.18783e-07     4.76165e-08
                    5.63595e-05    -3.33798e-05    -1.16992e-06    -7.22966e-07     3.40372e-07    -5.06915e-07        0.321397        0.769455
     5.162e+07         0.571403        0.740514      -0.0203379      -0.0112532     0.000102815    -6.51889e-05     5.58414e-05    -3.36822e-05
                     -0.0201963      -0.0111076       -0.964283        0.157437    -2.45728e-06    -4.28077e-07    -1.34383e-06     -8.6375e-07
                    0.000102219    -6.54688e-05    -2.38798e-06     3.81124e-08        0.325699        0.771563     2.17889e-07     4.54406e-08
                    5.62524e-05    -3.39064e-05    -1.18015e-06     -7.1403e-07     3.30562e-07    -5.12706e-07        0.324718        0.768066
     5.164e+07         0.579884        0.733614      -0.0205056      -0.0110989     0.000102796    -6.63489e-05     5.57268e-05    -3.42093e-05
                     -0.0203623      -0.0109542       -0.963196        0.164256    -2.47154e-06    -4.07739e-07    -1.35008e-06    -8.51727e-07
                    0.000102189     -6.6623e-05    -2.40403e-06     5.72314e-08        0.329035        0.770151     2.16931e-07     4.32924e-08
                    5.61399e-05    -3.44338e-05    -1.19034e-06    -7.04939e-07     3.20604e-07    -5.18317e-07        0.328033        0.766661
     5.166e+07         0.588309        0.726596      -0.0206726      -0.0109422     0.000102768    -6.75174e-05     5.56069e-05    -3.47373e-05
                     -0.0205276      -0.0107985       -0.962058        0.171065    -2.48578e-06    -3.87063e-07    -1.35618e-06    -8.39681e-07
                     0.00010215    -6.77854e-05       -2.42e-06     7.67383e-08        0.332365        0.768724     2.15908e-07      4.1174e-08
                    5.60222e-05    -3.49622e-05    -1.20047e-06    -6.95695e-07       3.105e-07    -5.23743e-07        0.331341         0.76524
     5.168e+07         0.596673        0.719458      -0.0208389      -0.0107832     0.000102731    -6.86944e-05     5.54816e-05     -3.5266e-05
                     -0.0206922      -0.0106404       -0.960871        0.177864    -2.49997e-06    -3.66044e-07    -1.36212e-06    -8.27614e-07
                    0.000102102     -6.8956e-05    -2.43588e-06     9.66357e-08        0.335689         0.76728     2.14823e-07     3.90871e-08
                     5.5899e-05    -3.54915e-05    -1.21055e-06    -6.86296e-07     3.00254e-07    -5.28982e-07        0.334643        0.763803
      5.17e+07         0.604977        0.712202      -0.0210045      -0.0106218     0.000102685      -6.988e-05     5.53508e-05    -3.57955e-05
                      -0.020856        -0.01048       -0.959635        0.184653    -2.51413e-06     -3.4468e-07     -1.3679e-06    -8.15531e-07
                    0.000102044     -7.0135e-05    -2.45166e-06     1.16926e-07        0.339005        0.765819     2.13675e-07     3.70338e-08
                    5.57704e-05    -3.60216e-05    -1.22057e-06    -6.76741e-07     2.89871e-07    -5.34028e-07        0.337939         0.76235
     5.172e+07         0.613218        0.704825      -0.0211694      -0.0104581     0.000102628    -7.10742e-05     5.52144e-05    -3.63257e-05
                     -0.0210192      -0.0103173       -0.958349         0.19143    -2.52823e-06    -3.22965e-07    -1.37353e-06    -8.03433e-07
                    0.000101977    -7.13223e-05    -2.46733e-06     1.37613e-07        0.342315        0.764343     2.12465e-07      3.5016e-08
                    5.56363e-05    -3.65525e-05    -1.23053e-06    -6.67031e-07     2.79352e-07    -5.38877e-07        0.341227         0.76088
     5.174e+07         0.621394        0.697329      -0.0213334      -0.0102919     0.000102562    -7.22771e-05     5.50725e-05    -3.68565e-05
                     -0.0211815      -0.0101522       -0.957014        0.198196    -2.54229e-06    -3.00895e-07    -1.37901e-06    -7.91325e-07
                    0.000101899    -7.25179e-05    -2.48289e-06     1.58697e-07        0.345618         0.76285     2.11195e-07     3.30355e-08
                    5.54967e-05    -3.70841e-05    -1.24043e-06    -6.57166e-07     2.68702e-07    -5.43527e-07        0.344509        0.759395
     5.176e+07         0.629505        0.689714      -0.0214967      -0.0101234     0.000102486    -7.34886e-05      5.4925e-05     -3.7388e-05
                      -0.021343     -0.00998473       -0.955629         0.20495    -2.55628e-06    -2.78467e-07    -1.38433e-06    -7.79209e-07
                    0.000101812     -7.3722e-05    -2.49832e-06     1.80182e-07        0.348914        0.761341     2.09865e-07     3.10942e-08
                    5.53515e-05    -3.76164e-05    -1.25026e-06    -6.47144e-07     2.57925e-07    -5.47972e-07        0.347783        0.757894
     5.178e+07         0.637548        0.681978      -0.0216591     -0.00995254       0.0001024    -7.47089e-05     5.47718e-05    -3.79199e-05
                     -0.0215037     -0.00981488       -0.954195        0.211692     -2.5702e-06    -2.55677e-07    -1.38951e-06    -7.67088e-07
                    0.000101715    -7.49345e-05    -2.51362e-06      2.0207e-07        0.352202        0.759817     2.08477e-07      2.9194e-08
                    5.52006e-05    -3.81493e-05    -1.26003e-06    -6.36967e-07     2.47024e-07     -5.5221e-07         0.35105        0.756376
      5.18e+07         0.645521        0.674122      -0.0218207     -0.00977923     0.000102303    -7.59379e-05     5.46128e-05    -3.84523e-05
                     -0.0216636     -0.00964264       -0.952713        0.218421    -2.58406e-06     -2.3252e-07    -1.39453e-06    -7.54965e-07
                    0.000101607    -7.61555e-05    -2.52879e-06     2.24363e-07        0.355483        0.758276     2.07031e-07     2.73368e-08
                     5.5044e-05    -3.86827e-05    -1.26972e-06    -6.26634e-07     2.36004e-07    -5.56236e-07         0.35431        0.754843
     5.182e+07         0.653424        0.666146      -0.0219813     -0.00960349     0.000102196    -7.71757e-05      5.4448e-05    -3.89851e-05
                     -0.0218225       -0.009468       -0.951181        0.225136    -2.59783e-06    -2.08993e-07    -1.39941e-06    -7.42843e-07
                    0.000101489     -7.7385e-05    -2.54381e-06     2.47063e-07        0.358756        0.756719     2.05528e-07     2.55244e-08
                    5.48816e-05    -3.92166e-05    -1.27934e-06    -6.16144e-07     2.24867e-07    -5.60047e-07        0.357562        0.753294
     5.184e+07         0.661253        0.658049      -0.0221411     -0.00942531     0.000102078    -7.84223e-05     5.42774e-05    -3.95182e-05
                     -0.0219805     -0.00929094         -0.9496        0.231838    -2.61153e-06    -1.85092e-07    -1.40414e-06    -7.30726e-07
                     0.00010136    -7.86231e-05    -2.55869e-06     2.70173e-07        0.362022        0.755146     2.03969e-07     2.37587e-08
                    5.47134e-05    -3.97509e-05    -1.28888e-06    -6.05498e-07      2.1362e-07    -5.63639e-07        0.360807        0.751729
     5.186e+07         0.669007        0.649832      -0.0222998     -0.00924468     0.000101948    -7.96778e-05     5.41009e-05    -4.00516e-05
                     -0.0221376     -0.00911145       -0.947971        0.238526    -2.62513e-06    -1.60813e-07    -1.40873e-06    -7.18616e-07
                     0.00010122    -7.98698e-05     -2.5734e-06     2.93694e-07         0.36528        0.753558     2.02357e-07     2.20414e-08
                    5.45394e-05    -4.02855e-05    -1.29834e-06    -5.94696e-07     2.02265e-07    -5.67008e-07        0.364044        0.750149
     5.188e+07         0.676685        0.641495      -0.0224576      -0.0090616     0.000101808    -8.09422e-05     5.39184e-05    -4.05852e-05
                     -0.0222937     -0.00892952       -0.946293        0.245199    -2.63863e-06    -1.36153e-07    -1.41317e-06    -7.06516e-07
                    0.000101069     -8.1125e-05    -2.58794e-06     3.17627e-07        0.368529        0.751953     2.00691e-07     2.03743e-08
                    5.43594e-05    -4.08205e-05    -1.30771e-06    -5.83739e-07     1.90807e-07    -5.70152e-07        0.367273        0.748553
      5.19e+07         0.684284        0.633036      -0.0226144     -0.00887604     0.000101657    -8.22155e-05     5.37299e-05    -4.11189e-05
                     -0.0224488     -0.00874514       -0.944567        0.251857    -2.65203e-06    -1.11107e-07    -1.41747e-06    -6.94429e-07
                    0.000100907     -8.2389e-05    -2.60231e-06     3.41976e-07        0.371771        0.750333     1.98974e-07     1.87593e-08
                    5.41734e-05    -4.13556e-05      -1.317e-06    -5.72626e-07      1.7925e-07    -5.73066e-07        0.370493        0.746941
     5.192e+07         0.691803        0.624458      -0.0227701     -0.00868799     0.000101494    -8.34978e-05     5.35353e-05    -4.16527e-05
                     -0.0226028      -0.0085583       -0.942793          0.2585    -2.66531e-06    -8.56722e-08    -1.42163e-06    -6.82357e-07
                    0.000100734    -8.36616e-05    -2.61649e-06     3.66741e-07        0.375004        0.748697     1.97206e-07      1.7198e-08
                    5.39813e-05    -4.18909e-05     -1.3262e-06    -5.61357e-07       1.676e-07    -5.75748e-07        0.373706        0.745314
     5.194e+07         0.699239        0.615758      -0.0229248     -0.00849745     0.000101319    -8.47891e-05     5.33347e-05    -4.21864e-05
                     -0.0227558     -0.00836897        -0.94097        0.265127    -2.67848e-06    -5.98451e-08    -1.42565e-06    -6.70304e-07
                    0.000100548    -8.49429e-05    -2.63049e-06     3.91924e-07        0.378229        0.747046      1.9539e-07     1.56922e-08
                    5.37832e-05    -4.24263e-05     -1.3353e-06    -5.49934e-07      1.5586e-07    -5.78194e-07         0.37691        0.743671
     5.196e+07         0.706592        0.606938      -0.0230783      -0.0083044     0.000101132    -8.60894e-05     5.31278e-05      -4.272e-05
                     -0.0229076     -0.00817716       -0.939099        0.271738    -2.69152e-06    -3.36219e-08    -1.42953e-06    -6.58272e-07
                    0.000100351     -8.6233e-05    -2.64428e-06     4.17526e-07        0.381445        0.745379     1.93526e-07     1.42435e-08
                    5.35789e-05    -4.29616e-05     -1.3443e-06    -5.38356e-07     1.44035e-07    -5.80401e-07        0.380105        0.742013
     5.198e+07         0.713858        0.597997      -0.0232307     -0.00810883     0.000100933    -8.73988e-05     5.29147e-05    -4.32535e-05
                     -0.0230583     -0.00798286       -0.937181        0.278331    -2.70442e-06    -6.99938e-09    -1.43328e-06    -6.46265e-07
                    0.000100142    -8.75318e-05    -2.65786e-06     4.43549e-07        0.384652        0.743696     1.91616e-07     1.28537e-08
                    5.33683e-05    -4.34969e-05     -1.3532e-06    -5.26625e-07      1.3213e-07    -5.82365e-07        0.383292        0.740339
       5.2e+07         0.721035        0.588935      -0.0233819     -0.00791074     0.000100721    -8.87172e-05     5.26953e-05    -4.37866e-05
                     -0.0232079     -0.00778604       -0.935214        0.284908    -2.71719e-06      2.0026e-08    -1.43689e-06    -6.34284e-07
                    9.99203e-05    -8.88394e-05    -2.67123e-06     4.69994e-07        0.387851        0.741998     1.89662e-07     1.15244e-08
                    5.31515e-05     -4.4032e-05      -1.362e-06     -5.1474e-07      1.2015e-07    -5.84085e-07         0.38647         0.73865
     5.202e+07         0.728123        0.579752      -0.0235319     -0.00771009     0.000100497    -9.00448e-05     5.24696e-05    -4.43195e-05
                     -0.0233562      -0.0075867       -0.933201        0.291467    -2.72981e-06     4.74574e-08    -1.44038e-06    -6.22332e-07
                    9.96861e-05    -9.01559e-05    -2.68437e-06     4.96863e-07         0.39104        0.740285     1.87665e-07     1.02572e-08
                    5.29283e-05    -4.45669e-05    -1.37069e-06    -5.02703e-07     1.08099e-07    -5.85556e-07        0.389639        0.736946
     5.204e+07         0.735118        0.570449      -0.0236807      -0.0075069      0.00010026    -9.13814e-05     5.22374e-05    -4.48519e-05
                     -0.0235033     -0.00738483       -0.931139        0.298008    -2.74226e-06     7.52983e-08    -1.44373e-06    -6.10412e-07
                    9.94391e-05    -9.14812e-05    -2.69727e-06     5.24155e-07         0.39422        0.738556     1.85628e-07     9.05365e-09
                    5.26988e-05    -4.51014e-05    -1.37927e-06    -4.90515e-07     9.59835e-08    -5.86776e-07        0.392799        0.735227
     5.206e+07         0.742018        0.561025      -0.0238281     -0.00730114      0.00010001    -9.27272e-05     5.19988e-05    -4.53837e-05
                     -0.0236491     -0.00718041       -0.929031         0.30453    -2.75456e-06     1.03552e-07    -1.44696e-06    -5.98527e-07
                     9.9179e-05    -9.28154e-05    -2.70993e-06     5.51873e-07        0.397391        0.736813     1.83551e-07     7.91538e-09
                    5.24627e-05    -4.56355e-05    -1.38774e-06    -4.78175e-07     8.38077e-08    -5.87742e-07        0.395949        0.733493
     5.208e+07         0.748822        0.551481      -0.0239743     -0.00709281      9.9746e-05    -9.40822e-05     5.17537e-05     -4.5915e-05
                     -0.0237936     -0.00697345       -0.926876        0.311034    -2.76668e-06     1.32221e-07    -1.45006e-06    -5.86679e-07
                    9.89057e-05    -9.41584e-05    -2.72234e-06     5.80017e-07        0.400553        0.735054     1.81437e-07     6.84387e-09
                    5.22202e-05    -4.61691e-05    -1.39608e-06    -4.65686e-07      7.1577e-08    -5.88452e-07        0.399091        0.731743
      5.21e+07         0.755527        0.541817      -0.0241191     -0.00688189     9.94687e-05    -9.54464e-05      5.1502e-05    -4.64455e-05
                     -0.0239367     -0.00676392       -0.924673        0.317518    -2.77862e-06     1.61308e-07    -1.45303e-06     -5.7487e-07
                    9.86189e-05    -9.55104e-05    -2.73449e-06     6.08587e-07        0.403704         0.73328     1.79287e-07     5.84062e-09
                    5.19711e-05     -4.6702e-05    -1.40431e-06    -4.53048e-07     5.92968e-08    -5.88902e-07        0.402222        0.729979
     5.212e+07         0.762132        0.532032      -0.0242624     -0.00666838     9.91774e-05    -9.68197e-05     5.12437e-05    -4.69752e-05
                     -0.0240784     -0.00655181       -0.922425        0.323982    -2.79037e-06     1.90817e-07    -1.45589e-06    -5.63103e-07
                    9.83183e-05    -9.68712e-05    -2.74636e-06     6.37584e-07        0.406847        0.731491     1.77103e-07     4.90706e-09
                    5.17154e-05    -4.72343e-05    -1.41241e-06    -4.40263e-07     4.69723e-08    -5.89091e-07        0.405344          0.7282
     5.214e+07         0.768633        0.522128      -0.0244044     -0.00645226      9.8872e-05    -9.82023e-05     5.09788e-05     -4.7504e-05
                     -0.0242187     -0.00633712       -0.920129        0.330426    -2.80192e-06     2.20751e-07    -1.45863e-06     -5.5138e-07
                    9.80037e-05    -9.82411e-05    -2.75796e-06     6.67009e-07        0.409979        0.729688     1.74888e-07     4.04462e-09
                     5.1453e-05    -4.77658e-05    -1.42037e-06    -4.27331e-07      3.4609e-08    -5.89015e-07        0.408457        0.726407
     5.216e+07         0.775028        0.512103      -0.0245448     -0.00623352     9.85521e-05    -9.95941e-05      5.0707e-05    -4.80317e-05
                     -0.0243575     -0.00611984       -0.917788        0.336849    -2.81327e-06     2.51111e-07    -1.46125e-06    -5.39704e-07
                    9.76748e-05    -9.96198e-05    -2.76927e-06     6.96862e-07        0.413101         0.72787     1.72643e-07     3.25467e-09
                    5.11838e-05    -4.82963e-05    -1.42821e-06    -4.14254e-07     2.22126e-08    -5.88673e-07        0.411559        0.724599
     5.218e+07         0.781316        0.501959      -0.0246838     -0.00601216     9.82175e-05    -0.000100995     5.04285e-05    -4.85584e-05
                     -0.0244948     -0.00589995       -0.915401        0.343252     -2.8244e-06     2.81902e-07    -1.46376e-06    -5.28077e-07
                    9.73313e-05    -0.000101008    -2.78028e-06     7.27144e-07        0.416213        0.726037     1.70371e-07     2.53854e-09
                    5.09079e-05    -4.88258e-05    -1.43591e-06    -4.01035e-07     9.78859e-09    -5.88062e-07        0.414651        0.722776
      5.22e+07         0.787494        0.491696      -0.0248212     -0.00578817     9.78679e-05    -0.000102405     5.01432e-05    -4.90838e-05
                     -0.0246306     -0.00567746       -0.912967        0.349632     -2.8353e-06     3.13125e-07    -1.46615e-06    -5.16501e-07
                    9.69731e-05    -0.000102404    -2.79098e-06     7.57853e-07        0.419315        0.724189     1.68073e-07     1.89752e-09
                     5.0625e-05    -4.93542e-05    -1.44347e-06    -3.87673e-07    -2.65728e-09     -5.8718e-07        0.417733        0.720939
     5.222e+07         0.793559        0.481314      -0.0249569     -0.00556153      9.7503e-05    -0.000103825      4.9851e-05    -4.96078e-05
                     -0.0247648     -0.00545233       -0.910489        0.355991    -2.84597e-06     3.44783e-07    -1.46844e-06    -5.04978e-07
                    9.65997e-05     -0.00010381    -2.80136e-06     7.88991e-07        0.422406        0.722328     1.65751e-07     1.33286e-09
                    5.03353e-05    -4.98813e-05    -1.45088e-06    -3.74171e-07    -1.51192e-08    -5.86025e-07        0.420805        0.719088
     5.224e+07          0.79951        0.470813      -0.0250911     -0.00533223     9.71226e-05    -0.000105254     4.95518e-05    -5.01304e-05
                     -0.0248973     -0.00522458       -0.907965        0.362328    -2.85639e-06     3.76878e-07    -1.47062e-06    -4.93511e-07
                    9.62109e-05    -0.000105225    -2.81142e-06     8.20556e-07        0.425487        0.720452     1.63409e-07      8.4577e-10
                    5.00386e-05    -5.04071e-05    -1.45815e-06    -3.60531e-07    -2.75913e-08    -5.84596e-07        0.423866        0.717222
     5.226e+07         0.805343        0.460193      -0.0252235     -0.00510028     9.67262e-05    -0.000106692     4.92456e-05    -5.06514e-05
                     -0.0250281     -0.00499419       -0.905396        0.368641    -2.86656e-06     4.09413e-07     -1.4727e-06    -4.82101e-07
                    9.58065e-05    -0.000106648    -2.82113e-06      8.5255e-07        0.428557        0.718561     1.61047e-07     4.37394e-10
                    4.97349e-05    -5.09314e-05    -1.46526e-06    -3.46755e-07    -4.00677e-08    -5.82889e-07        0.426916        0.715343
     5.228e+07         0.811057        0.449456      -0.0253542     -0.00486566     9.63137e-05    -0.000108139     4.89324e-05    -5.11706e-05
                     -0.0251572     -0.00476116       -0.902782        0.374932    -2.87647e-06     4.42389e-07    -1.47468e-06     -4.7075e-07
                    9.53861e-05    -0.000108081     -2.8305e-06      8.8497e-07        0.431616        0.716657     1.58669e-07     1.08846e-10
                    4.94242e-05    -5.14542e-05    -1.47222e-06    -3.32844e-07    -5.25423e-08    -5.80904e-07        0.429956        0.713449
      5.23e+07         0.816648        0.438601      -0.0254832     -0.00462835     9.58848e-05    -0.000109596     4.86121e-05    -5.16881e-05
                     -0.0252846     -0.00452547       -0.900123        0.381199     -2.8861e-06     4.75809e-07    -1.47656e-06    -4.59462e-07
                    9.49494e-05    -0.000109523    -2.83952e-06     9.17817e-07        0.434664        0.714739     1.56277e-07    -1.38816e-10
                    4.91062e-05    -5.19751e-05    -1.47902e-06    -3.18801e-07     -6.5009e-08    -5.78638e-07        0.432985        0.711542
     5.232e+07         0.822115         0.42763      -0.0256103     -0.00438837      9.5439e-05    -0.000111062     4.82847e-05    -5.22035e-05
                     -0.0254101     -0.00428712        -0.89742        0.387442    -2.89545e-06     5.09675e-07    -1.47834e-06    -4.48236e-07
                    9.44962e-05    -0.000110973    -2.84816e-06      9.5109e-07        0.437702        0.712806     1.53874e-07    -3.04586e-10
                    4.87812e-05    -5.24943e-05    -1.48566e-06    -3.04629e-07    -7.74615e-08    -5.76091e-07        0.436003        0.709621
     5.234e+07         0.827454        0.416541      -0.0257355     -0.00414569     9.49761e-05    -0.000112537       4.795e-05    -5.27168e-05
                     -0.0255338     -0.00404609       -0.894673         0.39366    -2.90451e-06     5.43989e-07    -1.48003e-06    -4.37077e-07
                     9.4026e-05    -0.000112433    -2.85642e-06     9.84788e-07        0.440728        0.710861     1.51461e-07    -3.87509e-10
                    4.84488e-05    -5.30114e-05    -1.49213e-06    -2.90329e-07    -8.98938e-08     -5.7326e-07         0.43901        0.707686
     5.236e+07         0.832664        0.405337      -0.0258588     -0.00390031     9.44957e-05    -0.000114021     4.76081e-05    -5.32279e-05
                     -0.0256555      -0.0038024       -0.891883        0.399854    -2.91326e-06     5.78752e-07    -1.48164e-06    -4.25984e-07
                    9.35387e-05    -0.000113901     -2.8643e-06     1.01891e-06        0.443743        0.708901     1.49041e-07    -3.86685e-10
                    4.81093e-05    -5.35264e-05    -1.49843e-06    -2.75904e-07    -1.02299e-07    -5.70145e-07        0.442005        0.705738
     5.238e+07          0.83774        0.394017      -0.0259801     -0.00365223     9.39976e-05    -0.000115514      4.7259e-05    -5.37366e-05
                     -0.0257753     -0.00355602       -0.889048        0.406022     -2.9217e-06     6.13966e-07    -1.48315e-06     -4.1496e-07
                    9.30337e-05    -0.000115378    -2.87178e-06     1.05346e-06        0.446746        0.706928     1.46617e-07    -3.01272e-10
                    4.77623e-05    -5.40391e-05    -1.50456e-06    -2.61356e-07    -1.14672e-07    -5.66745e-07         0.44499        0.703776
      5.24e+07         0.842682        0.382582      -0.0260995     -0.00340143     9.34813e-05    -0.000117017     4.69025e-05    -5.42427e-05
                     -0.0258931     -0.00330696       -0.886171        0.412165    -2.92981e-06     6.49632e-07    -1.48459e-06    -4.04007e-07
                    9.25109e-05    -0.000116865    -2.87885e-06     1.08842e-06        0.449738        0.704942     1.44192e-07    -1.30485e-10
                     4.7408e-05    -5.45494e-05    -1.51051e-06     -2.4669e-07    -1.27005e-07    -5.63057e-07        0.447963        0.701802
     5.242e+07         0.847485        0.371033      -0.0262167     -0.00314793     9.29466e-05    -0.000118528     4.65386e-05    -5.47462e-05
                     -0.0260088      -0.0030552        -0.88325        0.418282    -2.93758e-06     6.85752e-07    -1.48594e-06    -3.93126e-07
                    9.19699e-05     -0.00011836    -2.88549e-06     1.12381e-06        0.452718        0.702943     1.41768e-07     1.26402e-10
                    4.70463e-05    -5.50571e-05    -1.51627e-06    -2.31906e-07    -1.39291e-07    -5.59082e-07        0.450924        0.699814
     5.244e+07         0.852148        0.359371      -0.0263318      -0.0028917      9.2393e-05    -0.000120049     4.61673e-05    -5.52468e-05
                     -0.0261224     -0.00280075       -0.880287        0.424373      -2.945e-06     7.22326e-07    -1.48721e-06    -3.82319e-07
                    9.14103e-05    -0.000119864    -2.89171e-06     1.15961e-06        0.455686         0.70093     1.39347e-07     4.70053e-10
                    4.66772e-05    -5.55621e-05    -1.52185e-06     -2.1701e-07    -1.51525e-07    -5.54818e-07        0.453873        0.697813
     5.246e+07         0.856668        0.347596      -0.0264448     -0.00263274     9.18203e-05    -0.000121579     4.57886e-05    -5.57444e-05
                     -0.0262338      -0.0025436       -0.877282        0.430436    -2.95207e-06     7.59357e-07    -1.48842e-06    -3.71588e-07
                    9.08318e-05    -0.000121377    -2.89748e-06     1.19583e-06        0.458643        0.698905     1.36933e-07     9.01067e-10
                    4.63005e-05    -5.60642e-05    -1.52724e-06    -2.02003e-07      -1.637e-07    -5.50264e-07        0.456811          0.6958
     5.248e+07         0.861041        0.335709      -0.0265555     -0.00237106     9.12279e-05    -0.000123118     4.54024e-05    -5.62388e-05
                      -0.026343     -0.00228375       -0.874234        0.436473    -2.95876e-06     7.96844e-07    -1.48955e-06    -3.60933e-07
                     9.0234e-05    -0.000122898     -2.9028e-06     1.23247e-06        0.461587        0.696867     1.34529e-07     1.41998e-09
                    4.59162e-05    -5.65632e-05    -1.53243e-06     -1.8689e-07    -1.75808e-07    -5.45421e-07        0.459737        0.693773
      5.25e+07         0.865264        0.323711      -0.0266639     -0.00210665     9.06156e-05    -0.000124665     4.50087e-05    -5.67299e-05
                     -0.0264499     -0.00202119       -0.871145        0.442482    -2.96507e-06     8.34788e-07    -1.49061e-06    -3.50357e-07
                    8.96165e-05    -0.000124428    -2.90765e-06     1.26952e-06         0.46452        0.694816     1.32137e-07     2.02726e-09
                    4.55244e-05     -5.7059e-05    -1.53743e-06    -1.71673e-07    -1.87843e-07    -5.40288e-07        0.462651        0.691735
     5.252e+07         0.869336        0.311603        -0.02677      -0.0018395      8.9983e-05    -0.000126222     4.46074e-05    -5.72174e-05
                     -0.0265545     -0.00175592       -0.868014        0.448463    -2.97098e-06     8.73191e-07    -1.49161e-06    -3.39861e-07
                     8.8979e-05    -0.000125967    -2.91203e-06     1.30698e-06         0.46744        0.692753      1.2976e-07     2.72331e-09
                     4.5125e-05    -5.75514e-05    -1.54223e-06    -1.56357e-07    -1.99799e-07    -5.34863e-07        0.465553        0.689684
     5.254e+07         0.873252        0.299385      -0.0268737     -0.00156962     8.93297e-05    -0.000127788     4.41986e-05    -5.77012e-05
                     -0.0266568     -0.00148795       -0.864842        0.454415    -2.97649e-06     9.12052e-07    -1.49255e-06    -3.29445e-07
                     8.8321e-05    -0.000127515    -2.91592e-06     1.34484e-06        0.470348        0.690677     1.27401e-07     3.50845e-09
                    4.47179e-05    -5.80403e-05    -1.54682e-06    -1.40945e-07    -2.11667e-07    -5.29148e-07        0.468442         0.68762
     5.256e+07         0.877011         0.28706      -0.0269749     -0.00129701     8.86552e-05    -0.000129362     4.37821e-05    -5.81812e-05
                     -0.0267565     -0.00121726       -0.861629        0.460339    -2.98157e-06     9.51372e-07    -1.49343e-06    -3.19112e-07
                    8.76422e-05    -0.000129071     -2.9193e-06     1.38311e-06        0.473243        0.688589     1.25063e-07     4.38294e-09
                    4.43032e-05    -5.85253e-05    -1.55121e-06    -1.25441e-07    -2.23442e-07    -5.23142e-07        0.471319        0.685545
     5.258e+07         0.880608        0.274627      -0.0270737     -0.00102166     8.79592e-05    -0.000130945      4.3358e-05    -5.86571e-05
                     -0.0268538    -0.000943864       -0.858376        0.466234    -2.98622e-06     9.91151e-07    -1.49426e-06    -3.08862e-07
                    8.69422e-05    -0.000130636    -2.92218e-06     1.42178e-06        0.476126         0.68649     1.22749e-07     5.34697e-09
                    4.38807e-05    -5.90064e-05    -1.55538e-06    -1.09851e-07    -2.35115e-07    -5.16845e-07        0.474184        0.683458
      5.26e+07         0.884041        0.262089      -0.0271698    -0.000743572     8.72412e-05    -0.000132537     4.29262e-05    -5.91287e-05
                     -0.0269485    -0.000667759       -0.855083          0.4721    -2.99043e-06     1.03139e-06    -1.49504e-06    -2.98697e-07
                    8.62206e-05    -0.000132209    -2.92454e-06     1.46085e-06        0.478997        0.684378     1.20463e-07     6.40063e-09
                    4.34505e-05    -5.94834e-05    -1.55933e-06    -9.41766e-08     -2.4668e-07    -5.10257e-07        0.477036        0.681359
     5.262e+07         0.887307        0.249445      -0.0272633    -0.000462753     8.65009e-05    -0.000134137     4.24868e-05    -5.95958e-05
                     -0.0270406    -0.000388948        -0.85175        0.477935    -2.99418e-06     1.07208e-06    -1.49577e-06    -2.88617e-07
                    8.54769e-05     -0.00013379    -2.92636e-06     1.50032e-06        0.481854        0.682255     1.18207e-07     7.54395e-09
                    4.30125e-05     -5.9956e-05    -1.56307e-06    -7.84241e-08     -2.5813e-07    -5.03379e-07        0.479876        0.679248
     5.264e+07         0.890403        0.236698      -0.0273541    -0.000179204     8.57377e-05    -0.000135745     4.20397e-05    -6.00583e-05
                     -0.0271299    -0.000107432       -0.848377        0.483741    -2.99746e-06     1.11324e-06    -1.49646e-06    -2.78624e-07
                    8.47107e-05     -0.00013538    -2.92763e-06     1.54018e-06        0.484699         0.68012     1.15984e-07     8.77689e-09
                    4.25667e-05    -6.04241e-05    -1.56658e-06    -6.25977e-08    -2.69458e-07    -4.96211e-07        0.482703        0.677126
     5.266e+07         0.893325        0.223849      -0.0274421     0.000107072     8.49513e-05    -0.000137362     4.15849e-05    -6.05159e-05
                     -0.0272166     0.000176785       -0.844966        0.489516    -3.00025e-06     1.15485e-06     -1.4971e-06    -2.68718e-07
                    8.39216e-05    -0.000136978    -2.92835e-06     1.58042e-06        0.487532        0.677974     1.13798e-07     1.00993e-08
                    4.21132e-05    -6.08873e-05    -1.56987e-06    -4.67024e-08    -2.80655e-07    -4.88754e-07        0.485517        0.674993
     5.268e+07          0.89607          0.2109      -0.0275273     0.000396071     8.41411e-05    -0.000138988     4.11224e-05    -6.09684e-05
                     -0.0273004     0.000463697       -0.841515         0.49526    -3.00254e-06     1.19692e-06    -1.49772e-06    -2.58901e-07
                    8.31092e-05    -0.000138583    -2.92849e-06     1.62106e-06        0.490351        0.675817     1.11652e-07      1.1511e-08
                    4.16518e-05    -6.13456e-05    -1.57293e-06    -3.07433e-08    -2.91715e-07    -4.81008e-07        0.488319        0.672849
      5.27e+07         0.898636        0.197851      -0.0276096     0.000687787     8.33068e-05    -0.000140621     4.06521e-05    -6.14155e-05
                     -0.0273813       0.0007533       -0.838027        0.500973    -3.00432e-06     1.23944e-06     -1.4983e-06    -2.49173e-07
                    8.22729e-05    -0.000140197    -2.92805e-06     1.66207e-06        0.493157        0.673648     1.09549e-07     1.30115e-08
                    4.11827e-05    -6.17987e-05    -1.57575e-06    -1.47256e-08     -3.0263e-07    -4.72975e-07        0.491107        0.670694
     5.272e+07         0.901018        0.184704       -0.027689     0.000982215     8.24479e-05    -0.000142263     4.01742e-05    -6.18571e-05
                     -0.0274593      0.00104559         -0.8345        0.506655    -3.00557e-06     1.28241e-06    -1.49886e-06    -2.39535e-07
                    8.14124e-05    -0.000141819    -2.92701e-06     1.70345e-06         0.49595        0.671469     1.07492e-07     1.46007e-08
                    4.07057e-05    -6.22464e-05    -1.57834e-06     1.34519e-09    -3.13393e-07    -4.64656e-07        0.493883        0.668528
     5.274e+07         0.903213        0.171461      -0.0277653      0.00127935     8.15638e-05    -0.000143912     3.96886e-05     -6.2293e-05
                     -0.0275343      0.00134055       -0.830936        0.512305    -3.00628e-06     1.32584e-06    -1.49939e-06    -2.29988e-07
                    8.05271e-05    -0.000143448    -2.92536e-06     1.74521e-06         0.49873        0.669279     1.05485e-07     1.62779e-08
                    4.02209e-05    -6.26884e-05    -1.58069e-06     1.74634e-08    -3.23996e-07    -4.56052e-07        0.496645        0.666351
     5.276e+07         0.905219        0.158124      -0.0278385      0.00157917     8.06542e-05    -0.000145569     3.91953e-05    -6.27228e-05
                     -0.0276061      0.00163818       -0.827334        0.517922    -3.00644e-06     1.36972e-06     -1.4999e-06    -2.20531e-07
                    7.96166e-05    -0.000145085    -2.92309e-06     1.78734e-06        0.501497        0.667079     1.03531e-07     1.80425e-08
                    3.97283e-05    -6.31244e-05    -1.58279e-06     3.36232e-08    -3.34431e-07    -4.47164e-07        0.499395        0.664164
     5.278e+07         0.907031        0.144694      -0.0279085      0.00188168     7.97184e-05    -0.000147234     3.86942e-05    -6.31463e-05
                     -0.0276749      0.00193847       -0.823696        0.523508    -3.00602e-06     1.41405e-06    -1.50039e-06    -2.11166e-07
                    7.86804e-05     -0.00014673    -2.92019e-06     1.82983e-06        0.504251        0.664868     1.01634e-07      1.9894e-08
                    3.92279e-05    -6.35543e-05    -1.58465e-06     4.98185e-08    -3.44692e-07    -4.37994e-07        0.502131        0.661967
      5.28e+07         0.908646        0.131173      -0.0279753      0.00218686     7.87561e-05    -0.000148906     3.81856e-05    -6.35633e-05
                     -0.0277404       0.0022414       -0.820021         0.52906    -3.00502e-06     1.45882e-06    -1.50088e-06    -2.01894e-07
                     7.7718e-05    -0.000148381    -2.91663e-06     1.87267e-06        0.506991        0.662648     9.97961e-08     2.18314e-08
                    3.87198e-05    -6.39778e-05    -1.58626e-06     6.60429e-08    -3.54769e-07    -4.28543e-07        0.504854         0.65976
     5.282e+07         0.910061        0.117563      -0.0280388      0.00249471     7.77666e-05    -0.000150586     3.76693e-05    -6.39735e-05
                     -0.0278026      0.00254697       -0.816311        0.534579    -3.00341e-06     1.50404e-06    -1.50135e-06    -1.92714e-07
                    7.67288e-05     -0.00015004    -2.91242e-06     1.91586e-06        0.509718        0.660417     9.80221e-08      2.3854e-08
                    3.82039e-05    -6.43946e-05    -1.58762e-06     8.22901e-08    -3.64656e-07    -4.18814e-07        0.507563        0.657543
     5.284e+07         0.911272        0.103867      -0.0280989       0.0028052     7.67495e-05    -0.000152273     3.71454e-05    -6.43766e-05
                     -0.0278614      0.00285515       -0.812564        0.540065    -3.00119e-06     1.54969e-06    -1.50183e-06    -1.83627e-07
                    7.57125e-05    -0.000151706    -2.90753e-06      1.9594e-06        0.512431        0.658177     9.63149e-08     2.59607e-08
                    3.76802e-05    -6.48045e-05    -1.58872e-06     9.85532e-08    -3.74345e-07    -4.08809e-07         0.51026        0.655317
     5.286e+07         0.912277       0.0900859      -0.0281555      0.00311832     7.57041e-05    -0.000153966      3.6614e-05    -6.47725e-05
                     -0.0279167      0.00316594       -0.808783        0.545517    -2.99834e-06     1.59579e-06     -1.5023e-06    -1.74633e-07
                    7.46683e-05    -0.000153378    -2.90196e-06     2.00328e-06        0.515131        0.655927     9.46782e-08     2.81505e-08
                    3.71489e-05    -6.52071e-05    -1.58957e-06     1.14825e-07    -3.83828e-07     -3.9853e-07        0.512943        0.653081
     5.288e+07          0.91307       0.0762225      -0.0282085      0.00343406     7.46301e-05    -0.000155667      3.6075e-05    -6.51607e-05
                     -0.0279686      0.00347932       -0.804966        0.550936    -2.99484e-06     1.64232e-06    -1.50278e-06    -1.65732e-07
                    7.35959e-05    -0.000155058    -2.89568e-06     2.04749e-06        0.517817        0.653668     9.31153e-08     3.04221e-08
                    3.66099e-05    -6.56023e-05    -1.59015e-06     1.31099e-07    -3.93097e-07     -3.8798e-07        0.515612        0.650836
      5.29e+07         0.913649       0.0622789       -0.028258       0.0037524     7.35268e-05    -0.000157373     3.55286e-05    -6.55411e-05
                     -0.0280168      0.00379526       -0.801116         0.55632    -2.99068e-06     1.68927e-06    -1.50327e-06    -1.56925e-07
                    7.24946e-05    -0.000156743    -2.88869e-06     2.09203e-06         0.52049        0.651399     9.16299e-08     3.27743e-08
                    3.60633e-05    -6.59896e-05    -1.59048e-06     1.47368e-07    -4.02144e-07    -3.77161e-07        0.518268        0.648581
     5.292e+07         0.914009       0.0482577      -0.0283037      0.00407331     7.23937e-05    -0.000159087     3.49749e-05    -6.59132e-05
                     -0.0280614      0.00411375       -0.797231        0.561669    -2.98583e-06     1.73666e-06    -1.50377e-06    -1.48211e-07
                    7.13639e-05    -0.000158435    -2.88096e-06     2.13689e-06         0.52315        0.649122     9.02256e-08     3.52057e-08
                    3.55092e-05    -6.63689e-05    -1.59054e-06     1.63623e-07    -4.10961e-07    -3.66075e-07        0.520911        0.646318
     5.294e+07         0.914148       0.0341614      -0.0283457      0.00439678     7.12301e-05    -0.000160806     3.44137e-05    -6.62769e-05
                     -0.0281022      0.00443477       -0.793313        0.566984    -2.98028e-06     1.78447e-06    -1.50429e-06    -1.39591e-07
                    7.02033e-05    -0.000160133     -2.8725e-06     2.18205e-06        0.525795        0.646836      8.8906e-08     3.77146e-08
                    3.49476e-05    -6.67398e-05    -1.59033e-06     1.79857e-07    -4.19541e-07    -3.54727e-07         0.52354        0.644046
     5.296e+07         0.914062       0.0199926      -0.0283837      0.00472277     7.00355e-05    -0.000162531     3.38454e-05    -6.66318e-05
                     -0.0281391      0.00475829       -0.789361        0.572264    -2.97402e-06     1.83269e-06    -1.50484e-06    -1.31064e-07
                    6.90121e-05    -0.000161836    -2.86328e-06     2.22753e-06        0.528427        0.644541     8.76746e-08     4.02994e-08
                    3.43786e-05     -6.7102e-05    -1.58985e-06     1.96062e-07    -4.27874e-07    -3.43119e-07        0.526155        0.641766
     5.298e+07         0.913747      0.00575415      -0.0284179      0.00505128     6.88093e-05    -0.000164262     3.32699e-05    -6.69776e-05
                     -0.0281721      0.00508429       -0.785377        0.577508    -2.96703e-06     1.88133e-06    -1.50541e-06     -1.2263e-07
                    6.77898e-05    -0.000163545    -2.85328e-06     2.27329e-06        0.531046        0.642238     8.65351e-08     4.29584e-08
                    3.38022e-05    -6.74553e-05    -1.58911e-06      2.1223e-07    -4.35954e-07    -3.31254e-07        0.528757        0.639478
       5.3e+07         0.913199      -0.0085512       -0.028448      0.00538226      6.7551e-05    -0.000165998     3.26873e-05     -6.7314e-05
                     -0.0282011      0.00541274       -0.781361        0.582717    -2.95929e-06     1.93037e-06    -1.50601e-06    -1.14289e-07
                    6.65357e-05    -0.000165259     -2.8425e-06     2.31935e-06        0.533651        0.639927     8.54911e-08     4.56896e-08
                    3.32187e-05    -6.77991e-05    -1.58809e-06     2.28351e-07    -4.43772e-07    -3.19137e-07        0.531346        0.637181
     5.302e+07         0.912414      -0.0229204      -0.0284739      0.00571569     6.62597e-05    -0.000167739     3.20977e-05    -6.76407e-05
                      -0.028226       0.0057436       -0.777313        0.587889    -2.95078e-06     1.97982e-06    -1.50665e-06     -1.0604e-07
                    6.52493e-05    -0.000166979    -2.83092e-06     2.36569e-06        0.536242        0.637608     8.45464e-08     4.84911e-08
                     3.2628e-05    -6.81334e-05     -1.5868e-06     2.44418e-07    -4.51321e-07     -3.0677e-07         0.53392        0.634877
     5.304e+07         0.911389      -0.0373503      -0.0284957      0.00605155     6.49351e-05    -0.000169485     3.15014e-05    -6.79573e-05
                     -0.0282467      0.00607686       -0.773234        0.593026    -2.94149e-06     2.02966e-06    -1.50734e-06    -9.78841e-08
                    6.39299e-05    -0.000168702    -2.81853e-06      2.4123e-06        0.538819        0.635281     8.37045e-08     5.13606e-08
                    3.20303e-05    -6.84576e-05    -1.58523e-06      2.6042e-07    -4.58591e-07    -2.94159e-07        0.536482        0.632564
     5.306e+07         0.910119      -0.0518378      -0.0285131      0.00638978     6.35764e-05    -0.000171235     3.08983e-05    -6.82634e-05
                     -0.0282632      0.00641247       -0.769124        0.598127    -2.93139e-06     2.07989e-06    -1.50807e-06    -8.98194e-08
                     6.2577e-05     -0.00017043    -2.80531e-06     2.45917e-06        0.541383        0.632946     8.29691e-08     5.42959e-08
                    3.14257e-05    -6.87715e-05    -1.58339e-06     2.76348e-07    -4.65575e-07    -2.81307e-07        0.539029        0.630245
     5.308e+07         0.908602      -0.0663794      -0.0285262      0.00673037     6.21829e-05    -0.000172989     3.02886e-05    -6.85588e-05
                     -0.0282752       0.0067504       -0.764984        0.603191    -2.92048e-06      2.1305e-06    -1.50885e-06    -8.18457e-08
                    6.11898e-05    -0.000172163    -2.79124e-06      2.5063e-06        0.543933        0.630605     8.23439e-08     5.72945e-08
                    3.08143e-05    -6.90747e-05    -1.58127e-06     2.92194e-07    -4.72264e-07    -2.68219e-07        0.541563        0.627918
      5.31e+07         0.906833      -0.0809716      -0.0285348      0.00707326      6.0754e-05    -0.000174747     2.96725e-05    -6.88431e-05
                     -0.0282829      0.00709062       -0.760813        0.608219    -2.90872e-06     2.18149e-06    -1.50969e-06    -7.39624e-08
                    5.97677e-05    -0.000173898    -2.77631e-06     2.55366e-06         0.54647        0.628256     8.18327e-08     6.03538e-08
                    3.01964e-05    -6.93668e-05    -1.57888e-06     3.07946e-07    -4.78652e-07    -2.54899e-07        0.544084        0.625584
     5.312e+07         0.904808      -0.0956107      -0.0285388      0.00741843      5.9289e-05    -0.000176508     2.90501e-05    -6.91159e-05
                     -0.0282859      0.00743307       -0.756614        0.613209     -2.8961e-06     2.23284e-06    -1.51059e-06    -6.61687e-08
                      5.831e-05    -0.000175638    -2.76051e-06     2.60127e-06        0.548993          0.6259     8.14389e-08     6.34712e-08
                    2.95719e-05    -6.96476e-05    -1.57621e-06     3.23595e-07    -4.84728e-07    -2.41353e-07        0.546591        0.623244
     5.314e+07         0.902524       -0.110293      -0.0285382      0.00776582     5.77873e-05    -0.000178273     2.84217e-05    -6.93768e-05
                     -0.0282844      0.00777772       -0.752385        0.618163     -2.8826e-06     2.28455e-06    -1.51156e-06    -5.84637e-08
                    5.68161e-05     -0.00017738    -2.74382e-06     2.64909e-06        0.551502        0.623537     8.11664e-08     6.66437e-08
                    2.89412e-05    -6.99165e-05    -1.57326e-06      3.3913e-07    -4.90486e-07    -2.27585e-07        0.549085        0.620896
     5.316e+07         0.899976       -0.125015      -0.0285328       0.0081154     5.62481e-05    -0.000180039     2.77873e-05    -6.96255e-05
                     -0.0282781      0.00812453       -0.748128        0.623079     -2.8682e-06     2.33661e-06     -1.5126e-06    -5.08467e-08
                    5.52853e-05    -0.000179124    -2.72622e-06     2.69712e-06        0.553998        0.621168     8.10187e-08     6.98684e-08
                    2.83044e-05    -7.01732e-05    -1.57003e-06     3.54541e-07    -4.95917e-07    -2.13601e-07        0.551565        0.618543
     5.318e+07         0.897161       -0.139772      -0.0285225      0.00846711     5.46708e-05    -0.000181808     2.71473e-05    -6.98616e-05
                      -0.028267      0.00847344       -0.743843        0.627958    -2.85289e-06     2.38901e-06    -1.51371e-06    -4.33165e-08
                    5.37168e-05    -0.000180871     -2.7077e-06     2.74536e-06         0.55648        0.618793     8.09995e-08      7.3142e-08
                    2.76617e-05    -7.04174e-05    -1.56654e-06     3.69816e-07    -5.01013e-07    -1.99406e-07        0.554031        0.616183
      5.32e+07         0.894075       -0.154559      -0.0285073       0.0088209     5.30546e-05    -0.000183579     2.65018e-05    -7.00846e-05
                      -0.028251       0.0088244        -0.73953        0.632799    -2.83664e-06     2.44174e-06    -1.51491e-06     -3.5872e-08
                      5.211e-05    -0.000182619    -2.68824e-06     2.79378e-06        0.558949        0.616412     8.11125e-08     7.64614e-08
                    2.70133e-05    -7.06487e-05    -1.56276e-06     3.84944e-07    -5.05765e-07    -1.85007e-07        0.556485        0.613817
     5.322e+07         0.890714       -0.169374      -0.0284871      0.00917672     5.13988e-05    -0.000185351     2.58511e-05    -7.02943e-05
                     -0.0282299      0.00917736        -0.73519        0.637602    -2.81943e-06      2.4948e-06     -1.5162e-06    -2.85121e-08
                    5.04642e-05    -0.000184369    -2.66784e-06     2.84238e-06        0.561405        0.614025     8.13612e-08     7.98229e-08
                    2.63595e-05    -7.08666e-05    -1.55872e-06     3.99913e-07    -5.10166e-07    -1.70409e-07        0.558925        0.611445
     5.324e+07         0.887074        -0.18421      -0.0284617      0.00953451     4.97026e-05    -0.000187124     2.51953e-05    -7.04901e-05
                     -0.0282037      0.00953226       -0.730824        0.642367    -2.80123e-06     2.54816e-06    -1.51759e-06    -2.12354e-08
                    4.87785e-05     -0.00018612    -2.64646e-06     2.89114e-06        0.563847        0.611632     8.17493e-08     8.32229e-08
                    2.57005e-05    -7.10706e-05     -1.5544e-06     4.14713e-07    -5.14207e-07    -1.55618e-07        0.561351        0.609068
     5.326e+07         0.883151       -0.199064       -0.028431      0.00989422     4.79653e-05    -0.000188896     2.45349e-05    -7.06717e-05
                     -0.0281724      0.00988905       -0.726432        0.647095    -2.78204e-06     2.60182e-06    -1.51907e-06    -1.40406e-08
                    4.70523e-05     -0.00018787     -2.6241e-06     2.94006e-06        0.566275        0.609233     8.22803e-08     8.66577e-08
                    2.50365e-05    -7.12606e-05    -1.54981e-06     4.29329e-07    -5.17881e-07    -1.40643e-07        0.563765        0.606685
     5.328e+07         0.878941        -0.21393       -0.028395       0.0102558     4.61862e-05    -0.000190669     2.38701e-05    -7.08386e-05
                     -0.0281357       0.0102477       -0.722014        0.651784    -2.76183e-06     2.65577e-06    -1.52066e-06    -6.92609e-09
                    4.52848e-05    -0.000189621    -2.60074e-06     2.98911e-06        0.568691         0.60683     8.29577e-08     9.01231e-08
                    2.43679e-05    -7.14358e-05    -1.54496e-06     4.43751e-07    -5.21178e-07    -1.25488e-07        0.566165        0.604298
      5.33e+07         0.874441       -0.228804      -0.0283535       0.0106191     4.43644e-05    -0.000192441     2.32011e-05    -7.09905e-05
                     -0.0280935        0.010608       -0.717572        0.656435    -2.74057e-06        2.71e-06    -1.52237e-06     1.09706e-10
                    4.34752e-05    -0.000191371    -2.57636e-06     3.03828e-06        0.571094        0.604421     8.37851e-08     9.36152e-08
                     2.3695e-05    -7.15961e-05    -1.53984e-06     4.57965e-07    -5.24092e-07    -1.10161e-07        0.568553        0.601905
     5.332e+07         0.869647       -0.243679      -0.0283065       0.0109841     4.24991e-05    -0.000194211     2.25283e-05    -7.11269e-05
                     -0.0280459         0.01097       -0.713105        0.661047    -2.71825e-06     2.76448e-06    -1.52419e-06      7.0685e-09
                    4.16228e-05    -0.000193119    -2.55095e-06     3.08756e-06        0.573483        0.602008     8.47659e-08     9.71294e-08
                     2.3018e-05    -7.17408e-05    -1.53446e-06     4.71958e-07    -5.26613e-07    -9.46709e-08        0.570927        0.599508
     5.334e+07         0.864554       -0.258551      -0.0282538       0.0113508     4.05896e-05    -0.000195979     2.18522e-05    -7.12473e-05
                     -0.0279926       0.0113337       -0.708613        0.665621    -2.69485e-06     2.81922e-06    -1.52613e-06     1.39521e-08
                    3.97267e-05    -0.000194865    -2.52449e-06     3.13693e-06        0.575859         0.59959     8.59035e-08     1.00661e-07
                    2.23374e-05    -7.18697e-05    -1.52883e-06     4.85717e-07    -5.28734e-07    -7.90237e-08        0.573289        0.597106
     5.336e+07         0.859159       -0.273414      -0.0281953       0.0117191     3.86351e-05    -0.000197745     2.11729e-05    -7.13513e-05
                     -0.0279336       0.0116989       -0.704099        0.670156    -2.67033e-06     2.87419e-06    -1.52821e-06     2.07626e-08
                    3.77861e-05    -0.000196609    -2.49696e-06     3.18639e-06        0.578223        0.597168     8.72013e-08     1.04206e-07
                    2.16534e-05    -7.19821e-05    -1.52294e-06     4.99228e-07    -5.30447e-07    -6.32279e-08        0.575637          0.5947
     5.338e+07         0.853458       -0.288263       -0.028131       0.0120888     3.66346e-05    -0.000199507      2.0491e-05    -7.14385e-05
                     -0.0278688       0.0120655       -0.699561        0.674652    -2.64468e-06     2.92938e-06    -1.53042e-06     2.75019e-08
                    3.58003e-05     -0.00019835    -2.46835e-06      3.2359e-06        0.580574        0.594741     8.86626e-08     1.07759e-07
                    2.09666e-05    -7.20777e-05    -1.51681e-06     5.12477e-07    -5.31743e-07    -4.72918e-08        0.577974        0.592289
      5.34e+07         0.847448        -0.30309      -0.0280607       0.0124599     3.45875e-05    -0.000201265     1.98069e-05    -7.15084e-05
                      -0.027798       0.0124335       -0.695001         0.67911    -2.61788e-06     2.98477e-06    -1.53278e-06     3.41724e-08
                    3.37683e-05    -0.000200087    -2.43863e-06     3.28546e-06        0.582912         0.59231     9.02907e-08     1.11315e-07
                    2.02772e-05     -7.2156e-05    -1.51043e-06     5.25451e-07    -5.32616e-07    -3.12239e-08        0.580297        0.589875
     5.342e+07         0.841125       -0.317891      -0.0279843       0.0128323     3.24928e-05    -0.000203018     1.91209e-05    -7.15606e-05
                     -0.0277212       0.0128027       -0.690419        0.683529     -2.5899e-06     3.04035e-06    -1.53529e-06     4.07762e-08
                    3.16893e-05    -0.000201819     -2.4078e-06     3.33504e-06        0.585238        0.589876     9.20887e-08     1.14869e-07
                    1.95858e-05    -7.22165e-05    -1.50382e-06     5.38134e-07    -5.33056e-07    -1.50331e-08        0.582608        0.587457
     5.344e+07         0.834485       -0.332657      -0.0279017       0.0132059     3.03496e-05    -0.000204766     1.84336e-05    -7.15945e-05
                     -0.0276382       0.0131732       -0.685815        0.687909    -2.56073e-06      3.0961e-06    -1.53795e-06     4.73161e-08
                    2.95625e-05    -0.000203546    -2.37584e-06     3.38464e-06        0.587552        0.587438     9.40598e-08     1.18415e-07
                    1.88928e-05    -7.22588e-05    -1.49698e-06     5.50512e-07    -5.33057e-07      1.2714e-09        0.584907        0.585036
     5.346e+07         0.827525       -0.347384      -0.0278128       0.0135806     2.81571e-05    -0.000206508     1.77455e-05    -7.16098e-05
                      -0.027549       0.0135447       -0.681191         0.69225    -2.53032e-06       3.152e-06    -1.54078e-06     5.37944e-08
                    2.73871e-05    -0.000205266    -2.34272e-06     3.43422e-06        0.589853        0.584997      9.6207e-08     1.21947e-07
                    1.81987e-05    -7.22824e-05    -1.48992e-06      5.6257e-07    -5.32609e-07     1.76802e-08        0.587194        0.582611
     5.348e+07          0.82024       -0.362064      -0.0277175       0.0139564     2.59145e-05    -0.000208242     1.70571e-05    -7.16058e-05
                     -0.0274534       0.0139172       -0.676546        0.696552    -2.49867e-06     3.20803e-06    -1.54378e-06     6.02142e-08
                     2.5162e-05     -0.00020698    -2.30843e-06     3.48378e-06        0.592142        0.582552     9.85333e-08      1.2546e-07
                    1.75041e-05    -7.22868e-05    -1.48265e-06     5.74292e-07    -5.31707e-07     3.41834e-08        0.589469        0.580183
      5.35e+07         0.812628       -0.376689      -0.0276157        0.014333     2.36207e-05    -0.000209968     1.63689e-05    -7.15823e-05
                     -0.0273513       0.0142906       -0.671882        0.700816    -2.46575e-06     3.26418e-06    -1.54697e-06     6.65782e-08
                    2.28865e-05    -0.000208686    -2.27296e-06     3.53329e-06        0.594419        0.580104     1.01042e-07     1.28948e-07
                    1.68094e-05    -7.22716e-05    -1.47517e-06     5.85664e-07    -5.30341e-07     5.07709e-08        0.591732        0.577752
     5.352e+07         0.804685       -0.391252      -0.0275072       0.0147104     2.12749e-05    -0.000211686     1.56816e-05    -7.15386e-05
                     -0.0272427       0.0146647       -0.667198         0.70504    -2.43153e-06     3.32042e-06    -1.55033e-06     7.28897e-08
                    2.05596e-05    -0.000210383    -2.23628e-06     3.58273e-06        0.596685        0.577654     1.03734e-07     1.32403e-07
                    1.61154e-05    -7.22361e-05     -1.4675e-06     5.96668e-07    -5.28505e-07     6.74322e-08        0.593983        0.575319
     5.354e+07         0.796408       -0.405747       -0.027392       0.0150885     1.88762e-05    -0.000213393     1.49957e-05    -7.14744e-05
                     -0.0271273       0.0150395       -0.662495        0.709225    -2.39598e-06     3.37673e-06     -1.5539e-06     7.91519e-08
                    1.81803e-05    -0.000212071    -2.19837e-06     3.63209e-06        0.598939        0.575201     1.06615e-07      1.3582e-07
                    1.54225e-05      -7.218e-05    -1.45964e-06      6.0729e-07     -5.2619e-07     8.41565e-08        0.596223        0.572882
     5.356e+07         0.787794       -0.420164        -0.02727       0.0154671     1.64236e-05     -0.00021509      1.4312e-05    -7.13891e-05
                     -0.0270052       0.0154148       -0.657774        0.713372     -2.3591e-06      3.4331e-06    -1.55766e-06     8.53683e-08
                    1.57479e-05    -0.000213748    -2.15923e-06     3.68133e-06        0.601181        0.572745     1.09685e-07     1.39192e-07
                    1.47314e-05    -7.21028e-05    -1.45161e-06     6.17512e-07    -5.23391e-07     1.00933e-07        0.598452        0.570444
     5.358e+07         0.778839       -0.434497       -0.027141       0.0158462     1.39163e-05    -0.000216775     1.36311e-05    -7.12822e-05
                     -0.0268761       0.0157905       -0.653035        0.717479    -2.32084e-06     3.48949e-06    -1.56164e-06     9.15426e-08
                    1.32612e-05    -0.000215414    -2.11882e-06     3.73044e-06        0.603412        0.570287     1.12947e-07     1.42511e-07
                     1.4043e-05     -7.2004e-05    -1.44341e-06     6.27319e-07    -5.20099e-07     1.17749e-07        0.600669        0.568003
      5.36e+07          0.76954       -0.448736      -0.0270049       0.0162255     1.13531e-05    -0.000218447     1.29537e-05    -7.11533e-05
                       -0.02674       0.0161664       -0.648279        0.721548    -2.28118e-06     3.54588e-06    -1.56584e-06     9.76786e-08
                    1.07195e-05    -0.000217067    -2.07714e-06     3.77939e-06        0.605632        0.567827     1.16405e-07      1.4577e-07
                    1.33577e-05     -7.1883e-05    -1.43507e-06     6.36694e-07    -5.16306e-07     1.34594e-07        0.602875         0.56556
     5.362e+07         0.759895       -0.462873      -0.0268616        0.016605      8.7332e-06    -0.000220105     1.22807e-05    -7.10019e-05
                     -0.0265969       0.0165425       -0.643506        0.725578     -2.2401e-06     3.60226e-06    -1.57026e-06     1.03781e-07
                    8.12161e-06    -0.000218707    -2.03416e-06     3.82816e-06        0.607842        0.565365     1.20059e-07     1.48962e-07
                    1.26766e-05    -7.17395e-05    -1.42659e-06     6.45619e-07    -5.12007e-07     1.51455e-07        0.605071        0.563116
     5.364e+07         0.749901       -0.476898      -0.0267111       0.0169844     6.05558e-06    -0.000221748     1.16128e-05    -7.08275e-05
                     -0.0264464       0.0169185       -0.638717        0.729569    -2.19757e-06     3.65858e-06    -1.57493e-06     1.09853e-07
                    5.46666e-06    -0.000220331    -1.98987e-06     3.87672e-06        0.610041        0.562902     1.23911e-07     1.52079e-07
                    1.20002e-05    -7.15728e-05    -1.41799e-06     6.54077e-07    -5.07195e-07     1.68319e-07        0.607256        0.560669
     5.366e+07         0.739555       -0.490804      -0.0265531       0.0173637     3.31925e-06    -0.000223374     1.09509e-05    -7.06297e-05
                     -0.0262887       0.0172944       -0.633912        0.733522    -2.15357e-06     3.71483e-06    -1.57984e-06       1.159e-07
                    2.75364e-06     -0.00022194    -1.94425e-06     3.92505e-06        0.612229        0.560436     1.27965e-07     1.55113e-07
                    1.13296e-05    -7.13826e-05    -1.40929e-06     6.62052e-07    -5.01862e-07     1.85174e-07        0.609431        0.558221
     5.368e+07         0.728854        -0.50458      -0.0263877       0.0177427     5.23204e-07    -0.000224983     1.02959e-05    -7.04079e-05
                     -0.0261234       0.0176699       -0.629092        0.737436    -2.10807e-06     3.77097e-06      -1.585e-06     1.21927e-07
                   -1.84526e-08    -0.000223531    -1.89728e-06     3.97312e-06        0.614407        0.557969      1.3222e-07     1.58056e-07
                    1.06656e-05    -7.11684e-05    -1.40049e-06     6.69525e-07    -4.96001e-07     2.02006e-07        0.611596        0.555772
      5.37e+07         0.717796       -0.518217      -0.0262146       0.0181212    -2.33357e-06    -0.000226573     9.64865e-06    -7.01618e-05
                     -0.0259507       0.0180449       -0.624258        0.741312    -2.06104e-06     3.82698e-06    -1.59043e-06     1.27939e-07
                   -2.85063e-06    -0.000225104    -1.84893e-06     4.02091e-06        0.616576        0.555501      1.3668e-07     1.60898e-07
                    1.00091e-05    -7.09296e-05    -1.39163e-06     6.76479e-07    -4.89607e-07     2.18801e-07        0.613751        0.553321
     5.372e+07         0.706379       -0.531705      -0.0260339       0.0184991    -5.25209e-06    -0.000228143     9.01026e-06    -6.98908e-05
                     -0.0257703       0.0184193       -0.619409        0.745149    -2.01246e-06     3.88282e-06    -1.59614e-06     1.33941e-07
                   -5.74391e-06    -0.000226657     -1.7992e-06     4.06838e-06        0.618734        0.553031     1.41344e-07     1.63632e-07
                    9.36119e-06    -7.06659e-05    -1.38272e-06     6.82897e-07    -4.82673e-07     2.35545e-07        0.615896        0.550869
     5.374e+07         0.694601       -0.545033      -0.0258453       0.0188761    -8.23339e-06    -0.000229691     8.38174e-06    -6.95946e-05
                     -0.0255821       0.0187928       -0.614546        0.748949    -1.96229e-06     3.93846e-06    -1.60213e-06      1.3994e-07
                   -8.69933e-06    -0.000228189    -1.74806e-06      4.1155e-06        0.620884         0.55056     1.46214e-07     1.66248e-07
                    8.72282e-06    -7.03767e-05    -1.37378e-06     6.88761e-07    -4.75194e-07     2.52223e-07        0.618033        0.548416
     5.376e+07         0.682459        -0.55819      -0.0256488       0.0192522    -1.12785e-05    -0.000231215     7.76418e-06    -6.92727e-05
                     -0.0253861       0.0191653       -0.609671         0.75271    -1.91052e-06     3.99388e-06    -1.60842e-06      1.4594e-07
                   -1.17179e-05    -0.000229698     -1.6955e-06     4.16225e-06        0.623024        0.548088     1.51292e-07     1.68736e-07
                    8.09513e-06    -7.00617e-05    -1.36483e-06     6.94053e-07    -4.67162e-07      2.6882e-07         0.62016        0.545963
     5.378e+07         0.669953       -0.571167      -0.0254443        0.019627    -1.43885e-05    -0.000232715     7.15873e-06    -6.89246e-05
                     -0.0251821       0.0195365       -0.604782        0.756434    -1.85711e-06     4.04903e-06    -1.61502e-06      1.5195e-07
                   -1.48008e-05    -0.000231183    -1.64149e-06     4.20859e-06        0.625155        0.545616     1.56577e-07     1.71087e-07
                    7.47927e-06    -6.97203e-05    -1.35589e-06     6.98755e-07    -4.58572e-07      2.8532e-07        0.622278        0.543508
      5.38e+07         0.657081       -0.583951      -0.0252316       0.0200004    -1.75644e-05    -0.000234189      6.5666e-06      -6.855e-05
                     -0.0249701       0.0199064       -0.599882         0.76012    -1.80203e-06     4.10387e-06    -1.62193e-06     1.57975e-07
                   -1.79489e-05    -0.000232642    -1.58601e-06      4.2545e-06        0.627278        0.543142      1.6207e-07     1.73291e-07
                    6.87644e-06    -6.93523e-05      -1.347e-06     7.02849e-07     -4.4942e-07     3.01707e-07        0.624388        0.541053
     5.382e+07         0.643842       -0.596531      -0.0250108       0.0203722    -2.08073e-05    -0.000235634     5.98906e-06    -6.81486e-05
                       -0.02475       0.0202746        -0.59497        0.763768    -1.74527e-06     4.15838e-06    -1.62918e-06     1.64023e-07
                   -2.11634e-05    -0.000234073    -1.52906e-06     4.29992e-06        0.629392        0.540668     1.67771e-07     1.75338e-07
                    6.28791e-06    -6.89571e-05    -1.33817e-06     7.06319e-07    -4.39699e-07     3.17965e-07        0.626489        0.538597
     5.384e+07         0.630235       -0.608894      -0.0247817       0.0207421    -2.41183e-05     -0.00023705     5.42743e-06    -6.77198e-05
                     -0.0245216       0.0206409       -0.590046         0.76738    -1.68679e-06      4.2125e-06    -1.63677e-06     1.70102e-07
                   -2.44453e-05    -0.000235475     -1.4706e-06     4.34484e-06        0.631499        0.538193      1.7368e-07     1.77217e-07
                    5.71502e-06    -6.85344e-05    -1.32943e-06     7.09146e-07    -4.29404e-07     3.34077e-07        0.628583        0.536141
     5.386e+07         0.616258        -0.62103      -0.0245441         0.02111    -2.74985e-05    -0.000238433      4.8831e-06    -6.72634e-05
                     -0.0242849       0.0210052       -0.585112        0.770954    -1.62656e-06      4.2662e-06    -1.64471e-06      1.7622e-07
                   -2.77957e-05    -0.000236847    -1.41062e-06     4.38921e-06        0.633598        0.535718     1.79796e-07     1.78917e-07
                    5.15914e-06    -6.80839e-05    -1.32082e-06     7.11312e-07    -4.18532e-07     3.50025e-07        0.630669        0.533684
     5.388e+07         0.601912       -0.632925      -0.0242981       0.0214756    -3.09488e-05    -0.000239784     4.35754e-06    -6.67791e-05
                     -0.0240397       0.0213672       -0.580167        0.774492    -1.56455e-06     4.31944e-06    -1.65303e-06     1.82386e-07
                   -3.12158e-05    -0.000238185     -1.3491e-06       4.433e-06        0.635689        0.533242     1.86119e-07     1.80426e-07
                    4.62176e-06    -6.76053e-05    -1.31236e-06     7.12801e-07    -4.07076e-07     3.65791e-07        0.632748        0.531226
      5.39e+07         0.587197       -0.644565      -0.0240435       0.0218387    -3.44705e-05    -0.000241099     3.85227e-06    -6.62666e-05
                     -0.0237861       0.0217267       -0.575213        0.777993    -1.50075e-06     4.37217e-06    -1.66172e-06     1.88609e-07
                   -3.47066e-05    -0.000239488    -1.28602e-06     4.47616e-06        0.637774        0.530766     1.92647e-07     1.81734e-07
                    4.10439e-06    -6.70981e-05    -1.30408e-06     7.13597e-07    -3.95034e-07     3.81357e-07         0.63482        0.528769
     5.392e+07         0.572112       -0.655939      -0.0237803        0.022199    -3.80646e-05    -0.000242376     3.36889e-06    -6.57256e-05
                      -0.023524       0.0220833       -0.570249        0.781458    -1.43511e-06     4.42434e-06    -1.67081e-06     1.94899e-07
                   -3.82691e-05    -0.000240755    -1.22136e-06     4.51866e-06        0.639851        0.528289     1.99379e-07     1.82828e-07
                    3.60865e-06    -6.65622e-05    -1.29603e-06     7.13681e-07    -3.82401e-07     3.96703e-07        0.636886        0.526311
     5.394e+07         0.556659       -0.667032      -0.0235084       0.0225562    -4.17322e-05    -0.000243613     2.90908e-06     -6.5156e-05
                     -0.0232531       0.0224369       -0.565277        0.784887    -1.36761e-06     4.47591e-06    -1.68031e-06     2.01267e-07
                   -4.19046e-05    -0.000241982    -1.15511e-06     4.56045e-06        0.641923        0.525812     2.06312e-07     1.83697e-07
                     3.1362e-06    -6.59974e-05    -1.28824e-06     7.13039e-07    -3.69174e-07     4.11809e-07        0.638945        0.523852
     5.396e+07         0.540838        -0.67783      -0.0232276       0.0229101    -4.54744e-05    -0.000244808      2.4746e-06    -6.45574e-05
                     -0.0229736       0.0227872       -0.560296        0.788281    -1.29823e-06     4.52682e-06    -1.69023e-06     2.07723e-07
                    -4.5614e-05    -0.000243168    -1.08724e-06     4.60149e-06        0.643988        0.523334     2.13446e-07     1.84327e-07
                    2.68882e-06    -6.54033e-05    -1.28074e-06     7.11654e-07    -3.55349e-07     4.26656e-07        0.640998        0.521394
     5.398e+07         0.524651       -0.688319      -0.0229381       0.0232605    -4.92923e-05    -0.000245959     2.06726e-06    -6.39299e-05
                     -0.0226853       0.0231339       -0.555306        0.791639    -1.22693e-06     4.57703e-06     -1.7006e-06     2.14281e-07
                   -4.93986e-05    -0.000244311    -1.01773e-06     4.64173e-06        0.646048        0.520856     2.20776e-07     1.84706e-07
                    2.26833e-06    -6.47799e-05    -1.27359e-06     7.09512e-07    -3.40924e-07     4.41222e-07        0.643046        0.518935
       5.4e+07         0.508099       -0.698483      -0.0226396       0.0236069    -5.31869e-05    -0.000247063     1.68901e-06    -6.32732e-05
                     -0.0223882       0.0234767       -0.550309        0.794962    -1.15368e-06     4.62647e-06    -1.71142e-06     2.20952e-07
                   -5.32594e-05    -0.000245407    -9.46572e-07     4.68113e-06        0.648102        0.518377     2.28299e-07     1.84821e-07
                    1.87667e-06    -6.41271e-05    -1.26681e-06     7.06598e-07    -3.25897e-07     4.55487e-07        0.645089        0.516475
     5.402e+07         0.491185       -0.708308      -0.0223322       0.0239491    -5.71594e-05    -0.000248117     1.34182e-06    -6.25874e-05
                     -0.0220822       0.0238153       -0.545305        0.798251    -1.07847e-06     4.67509e-06    -1.72271e-06     2.27751e-07
                   -5.71974e-05    -0.000246455    -8.73739e-07     4.71964e-06        0.650152        0.515898     2.36013e-07     1.84657e-07
                    1.51584e-06    -6.34448e-05    -1.26046e-06     7.02899e-07    -3.10264e-07     4.69427e-07        0.647126        0.514016
     5.404e+07          0.47391       -0.717779      -0.0220157       0.0242869    -6.12109e-05    -0.000249119     1.02781e-06    -6.18725e-05
                     -0.0217673       0.0241495       -0.540294        0.801506    -1.00125e-06     4.72282e-06    -1.73448e-06     2.34691e-07
                   -6.12139e-05    -0.000247451    -7.99214e-07     4.75721e-06        0.652197        0.513419     2.43911e-07     1.84202e-07
                    1.18794e-06    -6.27331e-05    -1.25458e-06     6.98401e-07    -2.94026e-07      4.8302e-07         0.64916        0.511556
     5.406e+07         0.456279       -0.726878      -0.0216902       0.0246198    -6.53423e-05    -0.000250066     7.49163e-07    -6.11286e-05
                     -0.0214435       0.0244788       -0.535277        0.804727    -9.22011e-07     4.76962e-06    -1.74677e-06      2.4179e-07
                   -6.53098e-05    -0.000248393    -7.22979e-07     4.79377e-06        0.654238        0.510939     2.51991e-07      1.8344e-07
                    8.95169e-07    -6.19919e-05    -1.24923e-06     6.93094e-07    -2.77181e-07     4.96243e-07        0.651189        0.509095
     5.408e+07         0.438295        -0.73559      -0.0213556       0.0249476    -6.95549e-05    -0.000250955     5.08154e-07    -6.03558e-05
                     -0.0211106        0.024803       -0.530253        0.807914    -8.40713e-07     4.81541e-06    -1.75958e-06     2.49062e-07
                   -6.94863e-05    -0.000249278    -6.45016e-07     4.82929e-06        0.656275        0.508458     2.60246e-07     1.82357e-07
                    6.39822e-07    -6.12215e-05    -1.24446e-06     6.86966e-07    -2.59728e-07     5.09072e-07        0.653215        0.506634
      5.41e+07         0.419962       -0.743898       -0.021012       0.0252699    -7.38495e-05    -0.000251783      3.0717e-07    -5.95544e-05
                     -0.0207687       0.0251217       -0.525223        0.811068    -7.57333e-07     4.86011e-06    -1.77293e-06     2.56527e-07
                   -7.37443e-05    -0.000250103    -5.65307e-07      4.8637e-06        0.658309        0.505976      2.6867e-07     1.80938e-07
                     4.2429e-07    -6.04221e-05    -1.24032e-06     6.80009e-07    -2.41667e-07     5.21482e-07        0.655237        0.504172
     5.412e+07         0.401285       -0.751785      -0.0206592       0.0255863    -7.82273e-05    -0.000252546     1.48698e-07    -5.87247e-05
                     -0.0204178       0.0254345       -0.520188         0.81419    -6.71844e-07     4.90367e-06    -1.78684e-06     2.64203e-07
                    -7.8085e-05    -0.000250865    -4.83834e-07     4.89694e-06         0.66034        0.503494     2.77257e-07     1.79168e-07
                    2.51069e-07     -5.9594e-05    -1.23687e-06     6.72214e-07       -2.23e-07     5.33446e-07        0.657257        0.501709
     5.414e+07          0.38227       -0.759233      -0.0202973       0.0258965    -8.26892e-05    -0.000253242     3.53297e-08    -5.78672e-05
                     -0.0200579       0.0257412       -0.515148        0.817279     -5.8422e-07     4.94601e-06    -1.80133e-06     2.72111e-07
                   -8.25094e-05     -0.00025156     -4.0058e-07     4.92894e-06        0.662368         0.50101     2.85999e-07     1.77031e-07
                    1.22764e-07    -5.87375e-05    -1.23418e-06     6.63576e-07    -2.03727e-07      5.4494e-07        0.659275        0.499246
     5.416e+07         0.362922       -0.766224      -0.0199263       0.0262001    -8.72362e-05    -0.000253866    -3.02339e-08    -5.69823e-05
                      -0.019689       0.0260412       -0.510103        0.820337    -4.94434e-07     4.98705e-06    -1.81643e-06     2.80273e-07
                   -8.70184e-05    -0.000252185    -3.15527e-07     4.95965e-06        0.664395        0.498525     2.94887e-07     1.74511e-07
                    4.20875e-08    -5.78532e-05    -1.23231e-06     6.54089e-07     -1.8385e-07     5.55935e-07         0.66129        0.496781
     5.418e+07         0.343249       -0.772739      -0.0195463       0.0264967    -9.18692e-05    -0.000254416     -4.5179e-08    -5.60706e-05
                     -0.0193111       0.0263343       -0.505053        0.823364    -4.02463e-07     5.02671e-06    -1.83214e-06     2.88712e-07
                    -9.1613e-05    -0.000252736    -2.28661e-07       4.989e-06        0.666419        0.496038     3.03914e-07      1.7159e-07
                    1.18677e-08    -5.69417e-05    -1.23132e-06     6.43752e-07    -1.63373e-07     5.66404e-07        0.663304        0.494314
      5.42e+07         0.323257        -0.77876      -0.0191571       0.0267859    -9.65892e-05    -0.000254886    -6.57689e-09     -5.5133e-05
                     -0.0189243       0.0266201       -0.499999         0.82636     -3.0828e-07      5.0649e-06     -1.8485e-06     2.97453e-07
                   -9.62942e-05    -0.000253209    -1.39964e-07     5.01691e-06        0.668443         0.49355     3.13069e-07     1.68253e-07
                     3.5048e-08    -5.60038e-05    -1.23129e-06     6.32565e-07    -1.42298e-07     5.76318e-07        0.665317        0.491846
     5.422e+07         0.302956       -0.784268       -0.018759       0.0270672    -0.000101397    -0.000255274     8.86197e-08    -5.41704e-05
                     -0.0185285        0.026898       -0.494941        0.829326    -2.11863e-07     5.10153e-06    -1.86553e-06     3.06524e-07
                   -0.000101063    -0.000253601    -4.94216e-08     5.04332e-06        0.670466         0.49106      3.2234e-07     1.64483e-07
                    1.14692e-07    -5.50403e-05     -1.2323e-06      6.2053e-07     -1.2063e-07     5.85648e-07        0.667329        0.489377
     5.424e+07         0.282355       -0.789243       -0.018352       0.0273403    -0.000106293    -0.000255574     2.43579e-07    -5.31837e-05
                     -0.0181239       0.0271677       -0.489879        0.832262    -1.13189e-07     5.13652e-06    -1.88324e-06     3.15953e-07
                    -0.00010592    -0.000253906     4.29805e-08     5.06814e-06        0.672488        0.488567     3.31717e-07      1.6026e-07
                    2.53984e-07    -5.40522e-05    -1.23441e-06     6.07652e-07    -9.83737e-08     5.94362e-07        0.669341        0.486905
     5.426e+07         0.261464       -0.793664      -0.0179361       0.0276047    -0.000111279    -0.000255783     4.61592e-07    -5.21742e-05
                     -0.0177106       0.0274287       -0.484813        0.835169    -1.22358e-08     5.16976e-06    -1.90167e-06     3.25772e-07
                   -0.000110865    -0.000254121     1.37256e-07     5.09129e-06         0.67451        0.486072     3.41187e-07     1.55569e-07
                    4.56234e-07    -5.30407e-05    -1.23773e-06      5.9394e-07    -7.55362e-08      6.0243e-07        0.671353        0.484431
     5.428e+07         0.240295       -0.797511      -0.0175114       0.0278599    -0.000116355    -0.000255896     7.46076e-07    -5.11433e-05
                     -0.0172885       0.0276806       -0.479744        0.838048     9.10158e-08     5.20115e-06    -1.92083e-06     3.36015e-07
                   -0.000115901    -0.000254242     2.33417e-07     5.11269e-06        0.676533        0.483575     3.50735e-07      1.5039e-07
                    7.24881e-07    -5.20073e-05    -1.24232e-06     5.79405e-07    -5.21244e-08     6.09818e-07        0.673365        0.481953
      5.43e+07         0.218858       -0.800763       -0.017078       0.0281055    -0.000121521    -0.000255907     1.10057e-06    -5.00924e-05
                      -0.016858        0.027923       -0.474671        0.840898     1.96585e-07     5.23059e-06    -1.94075e-06     3.46716e-07
                   -0.000121027    -0.000254262     3.31476e-07     5.13226e-06        0.678557        0.481073     3.60346e-07     1.44705e-07
                    1.06349e-06    -5.09533e-05    -1.24828e-06     5.64062e-07    -2.81465e-08     6.16494e-07        0.675379        0.479473
     5.432e+07         0.197169       -0.803399      -0.0166362       0.0283409    -0.000126779    -0.000255811     1.52876e-06    -4.90235e-05
                      -0.016419       0.0281552       -0.469595        0.843721     3.04488e-07     5.25797e-06    -1.96145e-06     3.57916e-07
                   -0.000126244    -0.000254177     4.31442e-07     5.14989e-06        0.680582        0.478569     3.70005e-07     1.38495e-07
                    1.47575e-06    -4.98806e-05     -1.2557e-06     5.47932e-07    -3.61216e-09     6.22423e-07        0.677394        0.476989
     5.434e+07         0.175241       -0.805397       -0.016186       0.0285657    -0.000132128    -0.000255604     2.03444e-06    -4.79384e-05
                     -0.0159717       0.0283769       -0.464515        0.846518     4.14741e-07     5.28316e-06    -1.98297e-06     3.69655e-07
                   -0.000131552    -0.000253982     5.33324e-07      5.1655e-06        0.682609         0.47606     3.79692e-07      1.3174e-07
                     1.9655e-06    -4.87912e-05    -1.26469e-06     5.31037e-07     2.14676e-08      6.2757e-07        0.679412        0.474502
     5.436e+07         0.153091       -0.806735      -0.0157276       0.0287794    -0.000137569    -0.000255279     2.62153e-06    -4.68395e-05
                     -0.0155164       0.0285874       -0.459433        0.849288     5.27356e-07     5.30604e-06    -2.00532e-06     3.81978e-07
                   -0.000136952     -0.00025367     6.37129e-07     5.17898e-06        0.684638        0.473546      3.8939e-07     1.24423e-07
                    2.53669e-06    -4.76873e-05    -1.27535e-06     5.13409e-07     4.70806e-08     6.31898e-07        0.681431         0.47201
     5.438e+07         0.130735       -0.807391      -0.0152613       0.0289814    -0.000143102     -0.00025483      3.2941e-06    -4.57292e-05
                     -0.0150532       0.0287864       -0.454347        0.852032     6.42344e-07     5.32649e-06    -2.02853e-06     3.94933e-07
                   -0.000142444    -0.000253237     7.42861e-07     5.19022e-06         0.68667        0.471028     3.99076e-07     1.16522e-07
                     3.1934e-06    -4.65713e-05    -1.28777e-06     4.95081e-07     7.32129e-08     6.35369e-07        0.683454        0.469512
      5.44e+07         0.108193       -0.807342      -0.0147872       0.0291711    -0.000148727    -0.000254251     4.05634e-06    -4.46103e-05
                     -0.0145824       0.0289732       -0.449257        0.854752     7.59711e-07     5.34438e-06    -2.05262e-06     4.08572e-07
                   -0.000148028    -0.000252675     8.50523e-07     5.19913e-06        0.688705        0.468503     4.08729e-07     1.08019e-07
                    3.93986e-06    -4.54461e-05    -1.30208e-06     4.76093e-07     9.98489e-08     6.37944e-07        0.685479         0.46701
     5.442e+07        0.0854837       -0.806565      -0.0143057        0.029348    -0.000154444    -0.000253536     4.91255e-06    -4.34859e-05
                     -0.0141042       0.0291472       -0.444165        0.857447     8.79461e-07     5.35955e-06    -2.07763e-06     4.22951e-07
                   -0.000153704    -0.000251978     9.60116e-07     5.20556e-06        0.690744        0.465973     4.18324e-07     9.88928e-08
                     4.7804e-06    -4.43148e-05    -1.31839e-06     4.56495e-07     1.26971e-07     6.39584e-07        0.687509        0.464501
     5.444e+07        0.0626301       -0.805037       -0.013817       0.0295115    -0.000160252    -0.000252677     5.86716e-06    -4.23596e-05
                      -0.013619        0.029308       -0.439069        0.860119      1.0016e-06     5.37186e-06    -2.10358e-06     4.38129e-07
                   -0.000159471    -0.000251139     1.07164e-06     5.20942e-06        0.692786        0.463436     4.27835e-07     8.91242e-08
                    5.71949e-06    -4.31807e-05    -1.33682e-06     4.36339e-07     1.54561e-07     6.40247e-07        0.689542        0.461986
     5.446e+07        0.0396554       -0.802734      -0.0133214       0.0296611    -0.000166151    -0.000251668      6.9247e-06    -4.12352e-05
                      -0.013127       0.0294549       -0.433969        0.862767     1.12611e-06     5.38115e-06    -2.13049e-06     4.54171e-07
                   -0.000165329    -0.000250151     1.18508e-06     5.21056e-06        0.694832        0.460891     4.37234e-07     7.86931e-08
                     6.7617e-06    -4.20478e-05    -1.35749e-06     4.15691e-07     1.82596e-07      6.3989e-07         0.69158        0.459463
     5.448e+07        0.0165853       -0.799632      -0.0128194       0.0297962    -0.000172141    -0.000250499     8.08983e-06    -4.01168e-05
                     -0.0126286       0.0295874       -0.428866        0.865394     1.25299e-06     5.38726e-06    -2.15838e-06     4.71146e-07
                   -0.000171278    -0.000249007     1.30043e-06     5.20885e-06        0.696883        0.458338     4.46491e-07     6.75796e-08
                     7.9117e-06    -4.09202e-05    -1.38054e-06      3.9462e-07     2.11052e-07     6.38471e-07        0.693622        0.456932
      5.45e+07      -0.00655263       -0.795709      -0.0123113        0.029916    -0.000178219    -0.000249165     9.36727e-06    -3.90091e-05
                     -0.0121243       0.0297047       -0.423759        0.867999     1.38223e-06     5.39002e-06    -2.18729e-06     4.89127e-07
                   -0.000177315    -0.000247697     1.41768e-06     5.20415e-06        0.698939        0.455776     4.55572e-07     5.57641e-08
                    9.17429e-06    -3.98027e-05     -1.4061e-06      3.7321e-07     2.39905e-07     6.35944e-07         0.69567        0.454392
     5.452e+07       -0.0297288        -0.79094      -0.0117976         0.03002    -0.000184385    -0.000247655     1.07618e-05    -3.79174e-05
                     -0.0116144       0.0298064       -0.418647        0.870582     1.51381e-06     5.38925e-06    -2.21723e-06     5.08196e-07
                   -0.000183441    -0.000246215      1.5368e-06     5.19631e-06        0.701001        0.453205     4.64443e-07     4.32272e-08
                    1.05543e-05    -3.87003e-05     -1.4343e-06     3.51551e-07     2.69123e-07     6.32263e-07        0.697723        0.451843
     5.454e+07        -0.052911       -0.785302      -0.0112787       0.0301076    -0.000190636    -0.000245961     1.22784e-05    -3.68473e-05
                     -0.0110996       0.0298918        -0.41353        0.873146     1.64769e-06     5.38475e-06    -2.24823e-06     5.28439e-07
                   -0.000189652     -0.00024455     1.65778e-06     5.18518e-06        0.703067        0.450622     4.73066e-07     2.99499e-08
                    1.20567e-05    -3.76186e-05    -1.46529e-06     3.29748e-07     2.98676e-07     6.27381e-07        0.699782        0.449283
     5.456e+07        -0.076065       -0.778771      -0.0107554       0.0301781    -0.000196971    -0.000244073     1.39219e-05     -3.5805e-05
                     -0.0105802       0.0299601       -0.408409         0.87569     1.78385e-06     5.37633e-06     -2.2803e-06     5.49947e-07
                   -0.000195948    -0.000242693     1.78058e-06     5.17058e-06         0.70514        0.448028       4.814e-07     1.59138e-08
                    1.36864e-05    -3.65641e-05    -1.49921e-06     3.07917e-07     3.28527e-07     6.21249e-07        0.701847        0.446711
     5.458e+07       -0.0991535       -0.771325       -0.010228       0.0302309    -0.000203386    -0.000241982     1.56972e-05    -3.47973e-05
                      -0.010057       0.0300109       -0.403282        0.878215     1.92223e-06     5.36377e-06    -2.31346e-06     5.72819e-07
                   -0.000202325    -0.000240636     1.90517e-06     5.15234e-06        0.707219        0.445422     4.89401e-07     1.10118e-09
                    1.54484e-05    -3.55433e-05    -1.53622e-06     2.86189e-07     3.58639e-07     6.13817e-07        0.703918        0.444127
      5.46e+07        -0.122137        -0.76294     -0.00969743       0.0302652     -0.00020988    -0.000239678     1.76094e-05    -3.38317e-05
                    -0.00953066       0.0300434       -0.398148        0.880722     2.06279e-06     5.34687e-06    -2.34772e-06     5.97163e-07
                    -0.00020878    -0.000238366     2.03148e-06     5.13029e-06        0.709304        0.442801     4.97023e-07    -1.45046e-08
                    1.73478e-05    -3.45639e-05    -1.57647e-06     2.64708e-07     3.88967e-07     6.05036e-07        0.705996         0.44153
     5.462e+07        -0.144972       -0.753594     -0.00916426       0.0302805    -0.000216447    -0.000237149     1.96632e-05    -3.29164e-05
                    -0.00900179        0.030057       -0.393008        0.883211     2.20545e-06     5.32538e-06     -2.3831e-06     6.23092e-07
                   -0.000215309    -0.000235875     2.15948e-06     5.10423e-06        0.711395        0.440167     5.04215e-07    -3.09192e-08
                    1.93893e-05    -3.36339e-05     -1.6201e-06     2.43638e-07     4.19465e-07     5.94853e-07         0.70808        0.438918
     5.464e+07        -0.167612       -0.743268     -0.00862934       0.0302761    -0.000223083    -0.000234384     2.18634e-05    -3.20604e-05
                    -0.00847125        0.030051       -0.387861        0.885683     2.35014e-06     5.29907e-06     -2.4196e-06     6.50729e-07
                   -0.000221909     -0.00023315      2.2891e-06     5.07397e-06        0.713493        0.437516     5.10924e-07    -4.81567e-08
                    2.15779e-05    -3.27624e-05    -1.66729e-06     2.23158e-07     4.50081e-07     5.83215e-07        0.710171         0.43629
     5.466e+07        -0.190009       -0.731939     -0.00809354       0.0302513    -0.000229784    -0.000231372     2.42147e-05    -3.12733e-05
                    -0.00793989       0.0300248       -0.382705        0.888139     2.49677e-06     5.26768e-06    -2.45722e-06     6.80204e-07
                   -0.000228574    -0.000230179     2.42025e-06     5.03928e-06        0.715597        0.434848     5.17092e-07    -6.62295e-08
                    2.39183e-05    -3.19591e-05    -1.71818e-06     2.03467e-07     4.80758e-07      5.7007e-07        0.712269        0.433645
     5.468e+07         -0.21211        -0.71959      -0.0075578       0.0302054    -0.000236542      -0.0002281     2.67214e-05    -3.05658e-05
                    -0.00740868       0.0299778        -0.37754        0.890579     2.64522e-06     5.23096e-06    -2.49596e-06     7.11658e-07
                   -0.000235298    -0.000226951     2.55285e-06     4.99996e-06        0.717708        0.432162     5.22658e-07    -8.51481e-08
                     2.6415e-05    -3.12345e-05    -1.77294e-06     1.84785e-07     5.11433e-07     5.55364e-07        0.714373        0.430982
      5.47e+07        -0.233857       -0.706203     -0.00702318       0.0301379    -0.000243352    -0.000224555     2.93879e-05    -2.99494e-05
                    -0.00687863       0.0299093       -0.372366        0.893004     2.79537e-06     5.18863e-06     -2.5358e-06     7.45239e-07
                   -0.000242075    -0.000223452     2.68679e-06     4.95577e-06        0.719825        0.429456     5.27555e-07     -1.0492e-07
                    2.90722e-05    -3.06003e-05    -1.83171e-06     1.67357e-07     5.42039e-07     5.39042e-07        0.716484        0.428299
     5.472e+07         -0.25519       -0.691763     -0.00649079       0.0300481    -0.000250205    -0.000220724     3.22178e-05    -2.94367e-05
                    -0.00635087       0.0298187        -0.36718        0.895415     2.94707e-06      5.1404e-06    -2.57673e-06     7.81107e-07
                   -0.000248896    -0.000219669     2.82194e-06     4.90648e-06        0.721948        0.426728     5.31713e-07    -1.25551e-07
                    3.18939e-05    -3.00689e-05    -1.89465e-06     1.51449e-07     5.72501e-07      5.2105e-07        0.718602        0.425595
     5.474e+07        -0.276043       -0.676257     -0.00596187       0.0299355    -0.000257092    -0.000216594     3.52146e-05    -2.90412e-05
                    -0.00582661       0.0297054       -0.361982        0.897811     3.10015e-06     5.08598e-06    -2.61871e-06     8.19431e-07
                   -0.000255753    -0.000215589     2.95817e-06     4.85183e-06        0.724078        0.423978     5.35057e-07    -1.47041e-07
                    3.48833e-05    -2.96541e-05    -1.96191e-06     1.37357e-07     6.02736e-07     5.01336e-07        0.720725        0.422869
     5.476e+07        -0.296349       -0.659675     -0.00543773       0.0297994    -0.000264003    -0.000212148     3.83811e-05    -2.87776e-05
                    -0.00530718       0.0295689       -0.356771        0.900194     3.25441e-06     5.02506e-06     -2.6617e-06     8.60391e-07
                   -0.000262636    -0.000211197     3.09532e-06     4.79156e-06        0.726212        0.421204     5.37508e-07    -1.69389e-07
                    3.80436e-05    -2.93704e-05    -2.03363e-06     1.25403e-07     6.32655e-07     4.79847e-07        0.722855        0.420118
     5.478e+07        -0.316033       -0.642009     -0.00491982       0.0296394    -0.000270926    -0.000207374     4.17193e-05    -2.86617e-05
                      -0.004794       0.0294087       -0.351546        0.902564     3.40963e-06     4.95732e-06    -2.70565e-06     9.04177e-07
                   -0.000269532    -0.000206478      3.2332e-06     4.72542e-06        0.728352        0.418404     5.38981e-07    -1.92587e-07
                    4.13768e-05    -2.92337e-05    -2.10994e-06      1.1594e-07      6.6216e-07     4.56531e-07         0.72499        0.417342
      5.48e+07        -0.335016       -0.623258     -0.00440969       0.0294551    -0.000277847    -0.000202257     4.52306e-05    -2.87107e-05
                    -0.00428861       0.0292244       -0.346305         0.90492     3.56556e-06     4.88244e-06    -2.75049e-06     9.50989e-07
                   -0.000276428    -0.000201417     3.37159e-06     4.65313e-06        0.730496        0.415577     5.39387e-07    -2.16622e-07
                    4.48844e-05    -2.92612e-05    -2.19096e-06     1.09354e-07     6.91144e-07     4.31339e-07        0.727129        0.414538
     5.482e+07        -0.353215       -0.603422     -0.00390901       0.0292459    -0.000284752    -0.000196779     4.89153e-05    -2.89427e-05
                    -0.00379267       0.0290156       -0.341046        0.907264      3.7219e-06      4.8001e-06    -2.79613e-06     1.00104e-06
                    -0.00028331    -0.000195999     3.51026e-06     4.57439e-06        0.732644         0.41272     5.38631e-07    -2.41476e-07
                    4.85668e-05    -2.94712e-05    -2.27678e-06     1.06063e-07     7.19492e-07     4.04227e-07        0.729272        0.411705
     5.484e+07        -0.370542       -0.582508     -0.00341958       0.0290118    -0.000291622    -0.000190928     5.27726e-05    -2.93775e-05
                    -0.00330796       0.0287819       -0.335768        0.909595     3.87832e-06     4.70994e-06    -2.84247e-06     1.05455e-06
                   -0.000290161    -0.000190209     3.64893e-06     4.48894e-06        0.734794        0.409832     5.36614e-07    -2.67123e-07
                    5.24232e-05    -2.98834e-05    -2.36749e-06     1.06523e-07     7.47077e-07     3.75151e-07        0.731418        0.408841
     5.486e+07        -0.386905       -0.560529     -0.00294332       0.0287524     -0.00029844    -0.000184686     5.68003e-05    -3.00359e-05
                    -0.00283639       0.0285233       -0.330469        0.911913     4.03446e-06     4.61164e-06    -2.88939e-06     1.11175e-06
                   -0.000296961    -0.000184031     3.78729e-06     4.39647e-06        0.736945        0.406912     5.33231e-07    -2.93528e-07
                    5.64516e-05    -3.05187e-05    -2.46315e-06     1.11227e-07     7.73762e-07     3.44074e-07        0.733566        0.405944
     5.488e+07        -0.402204       -0.537505     -0.00248229       0.0284677    -0.000305183    -0.000178038     6.09946e-05    -3.09402e-05
                    -0.00238001       0.0282396       -0.325147        0.914218     4.18989e-06     4.50485e-06    -2.93671e-06     1.17287e-06
                    -0.00030369     -0.00017745     3.92501e-06     4.29669e-06        0.739097        0.403957     5.28373e-07    -3.20648e-07
                    6.06483e-05    -3.13996e-05    -2.56377e-06     1.20705e-07     7.99399e-07     3.10966e-07        0.735715        0.403012
      5.49e+07        -0.416339       -0.513464     -0.00203868       0.0281577    -0.000311827     -0.00017097     6.53497e-05    -3.21139e-05
                    -0.00194099        0.027931       -0.319801        0.916509     4.34416e-06     4.38923e-06    -2.98428e-06     1.23817e-06
                   -0.000310323    -0.000170451     4.06169e-06     4.18932e-06        0.741247        0.400965     5.21926e-07    -3.48429e-07
                    6.50076e-05    -3.25495e-05    -2.66935e-06     1.35527e-07     8.23828e-07     2.75805e-07        0.737862        0.400044
     5.492e+07        -0.429201       -0.488442     -0.00161483       0.0278227    -0.000318347    -0.000163468     6.98579e-05    -3.35818e-05
                    -0.00152162       0.0275976       -0.314429        0.918787     4.49673e-06     4.26447e-06    -3.03188e-06      1.3079e-06
                   -0.000316835    -0.000163018     4.19689e-06     4.07407e-06        0.743394        0.397935     5.13773e-07    -3.76805e-07
                    6.95219e-05    -3.39935e-05    -2.77983e-06     1.56303e-07     8.46877e-07     2.38575e-07        0.740006        0.397038
     5.494e+07         -0.44068       -0.462488     -0.00121317       0.0274632    -0.000324712    -0.000155517     7.45088e-05    -3.53699e-05
                    -0.00112434       0.0272399       -0.309028         0.92105     4.64704e-06     4.13024e-06    -3.07927e-06      1.3823e-06
                   -0.000323196    -0.000155139     4.33013e-06     3.95066e-06        0.745536        0.394865     5.03795e-07    -4.05697e-07
                     7.4181e-05    -3.57575e-05    -2.89511e-06     1.83684e-07      8.6836e-07     1.99276e-07        0.742146        0.393991
     5.496e+07        -0.450662        -0.43566    -0.000836295       0.0270796     -0.00033089    -0.000147106     7.92896e-05    -3.75052e-05
                   -0.000751711       0.0268585       -0.303596        0.923298     4.79443e-06     3.98626e-06    -3.12616e-06     1.46164e-06
                   -0.000329373    -0.000146801     4.46087e-06     3.81885e-06        0.747671        0.391752     4.91868e-07    -4.35012e-07
                     7.8972e-05    -3.78688e-05    -3.01501e-06     2.18354e-07      8.8808e-07     1.57918e-07        0.744278        0.390903
     5.498e+07         -0.45903       -0.408028    -0.000486883       0.0266731    -0.000336845    -0.000138223     8.41839e-05    -4.00155e-05
                   -0.000406383       0.0264543        -0.29813        0.925529     4.93821e-06     3.83227e-06    -3.17224e-06     1.54616e-06
                   -0.000335332    -0.000137994     4.58852e-06      3.6784e-06        0.749795        0.388596      4.7787e-07    -4.64639e-07
                    8.38788e-05    -4.03553e-05    -3.13932e-06     2.61037e-07     9.05828e-07     1.14529e-07          0.7464         0.38777
       5.5e+07        -0.465666        -0.37968    -0.000167719       0.0262446    -0.000342538    -0.000128861     8.91721e-05    -4.29292e-05
                   -9.11144e-05       0.0260286        -0.29263        0.927741     5.07759e-06     3.66804e-06    -3.21714e-06     1.63611e-06
                   -0.000341033    -0.000128708     4.71242e-06      3.5291e-06        0.751906        0.385395     4.61677e-07    -4.94453e-07
                    8.88817e-05    -4.32456e-05    -3.26771e-06     3.12486e-07     9.21381e-07      6.9155e-08         0.74851        0.384592
     5.502e+07        -0.470452       -0.350717     0.000118339       0.0257958    -0.000347926    -0.000119014     9.42306e-05    -4.62752e-05
                    0.000191266       0.0255828       -0.287092        0.929933     5.21173e-06     3.49339e-06    -3.26044e-06     1.73171e-06
                   -0.000346435    -0.000118938     4.83186e-06     3.37079e-06           0.754        0.382147     4.43169e-07    -5.24306e-07
                    9.39575e-05    -4.65688e-05     -3.3998e-06     3.73481e-07     9.34506e-07     2.18638e-08        0.750604        0.381368
     5.504e+07        -0.473271       -0.321255     0.000368386       0.0253284    -0.000352964    -0.000108678     9.93318e-05    -5.00821e-05
                    0.000437886       0.0251187       -0.281514        0.932103      5.3397e-06     3.30822e-06    -3.30169e-06     1.83317e-06
                   -0.000351491     -0.00010868     4.94607e-06     3.20335e-06        0.756075        0.378851     4.22232e-07    -5.54031e-07
                    9.90783e-05    -5.03535e-05    -3.53508e-06      4.4482e-07      9.4496e-07    -2.72523e-08        0.752678        0.378095
     5.506e+07         -0.47401       -0.291433     0.000579509       0.0248448    -0.000357603    -9.78551e-05     0.000104443    -5.43778e-05
                    0.000645863       0.0246386       -0.275893        0.934248     5.46053e-06     3.11248e-06    -3.34036e-06     1.94067e-06
                   -0.000356153    -9.79356e-05     5.05419e-06     3.02674e-06        0.758126        0.375507     3.98757e-07     -5.8344e-07
                    0.000104212    -5.46282e-05    -3.67294e-06     5.27312e-07     9.52492e-07    -7.80731e-08        0.754729        0.374774
     5.508e+07        -0.472563       -0.261406     0.000748828       0.0243476     -0.00036179    -8.65515e-05     0.000109527    -5.91893e-05
                    0.000812353       0.0241451       -0.270229        0.936365     5.57314e-06     2.90623e-06     -3.3759e-06     2.05437e-06
                   -0.000360369    -8.67104e-05     5.15534e-06     2.84097e-06        0.760149        0.372113     3.72647e-07    -6.12321e-07
                    0.000109321    -5.94199e-05    -3.81266e-06      6.2176e-07     9.56844e-07    -1.30447e-07        0.756753        0.371403
      5.51e+07         -0.46883       -0.231349     0.000873554       0.0238399    -0.000365469    -7.47783e-05     0.000114542    -6.45415e-05
                      0.0009346       0.0236414       -0.264518        0.938451     5.67641e-06     2.68961e-06    -3.40768e-06     2.17434e-06
                   -0.000364083     -7.5015e-05     5.24855e-06     2.64614e-06         0.76214         0.36867      3.4382e-07    -6.40439e-07
                    0.000114363    -6.47538e-05    -3.95338e-06     7.28952e-07     9.57757e-07    -1.84188e-07        0.758744        0.367982
     5.512e+07        -0.462727        -0.20146     0.000951049       0.0233252    -0.000368584     -6.2553e-05     0.000119439    -7.04566e-05
                        0.00101        0.023131        -0.25876        0.940501     5.76918e-06      2.4629e-06    -3.43504e-06     2.30064e-06
                   -0.000367238    -6.28667e-05     5.33281e-06     2.44248e-06        0.764093        0.365177     3.12211e-07    -6.67537e-07
                     0.00011929    -7.06525e-05    -4.09411e-06     8.49637e-07     9.54974e-07    -2.39071e-07        0.760698        0.364512
     5.514e+07        -0.454183       -0.171955     0.000978906       0.0228078    -0.000371073    -4.99002e-05     0.000124165    -7.69533e-05
                     0.00103619        0.022618       -0.252952        0.942513      5.8502e-06     2.22652e-06    -3.45723e-06     2.43324e-06
                   -0.000369774    -5.02894e-05     5.40708e-06     2.23029e-06        0.766003        0.361635     2.77778e-07    -6.93332e-07
                    0.000124049    -7.71349e-05    -4.23371e-06     9.84509e-07     9.48241e-07    -2.94831e-07        0.762609        0.360992
     5.516e+07        -0.443147       -0.143072     0.000955028       0.0222922    -0.000372877    -3.68525e-05     0.000128661    -8.40454e-05
                     0.00101109       0.0221069       -0.247095         0.94448     5.91822e-06     1.98103e-06    -3.47352e-06     2.57204e-06
                    -0.00037163    -3.73151e-05     5.47027e-06     2.01004e-06        0.767866        0.358046     2.40508e-07    -7.17523e-07
                     0.00012858    -8.42152e-05    -4.37088e-06     1.13418e-06     9.37321e-07    -3.51159e-07        0.764474        0.357425
     5.518e+07        -0.429593       -0.115067     0.000877726       0.0217835    -0.000373935     -2.3451e-05     0.000132864    -9.17412e-05
                     0.00093305       0.0216029       -0.241187        0.946399     5.97199e-06     1.72718e-06    -3.48308e-06     2.71683e-06
                   -0.000372747    -2.39843e-05     5.52129e-06     1.78232e-06        0.769676        0.354413     2.00419e-07    -7.39785e-07
                     0.00013282    -9.19019e-05    -4.50419e-06     1.29916e-06     9.21991e-07    -4.07702e-07        0.766285        0.353813
      5.52e+07        -0.413524      -0.0882159     0.000745818       0.0212873    -0.000374187    -9.74599e-06     0.000136704    -0.000100042
                    0.000800922       0.0211115       -0.235228        0.948263     6.01024e-06     1.46589e-06    -3.48509e-06     2.86731e-06
                   -0.000373064    -1.03466e-05     5.55905e-06      1.5479e-06        0.771426        0.350737      1.5757e-07     -7.5978e-07
                      0.0001367    -0.000100197    -4.63206e-06     1.47981e-06     9.02057e-07     -4.6406e-07        0.768038        0.350158
     5.522e+07        -0.394973      -0.0628045     0.000558739       0.0208097    -0.000373576     4.20232e-06     0.000140108     -0.00010894
                    0.000614161       0.0206386        -0.22922        0.950068     6.03176e-06     1.19828e-06    -3.47873e-06     3.02305e-06
                   -0.000372524     3.53845e-06     5.58249e-06      1.3077e-06        0.773113        0.347022     1.12059e-07    -7.77156e-07
                    0.000140146    -0.000109093    -4.75276e-06     1.67633e-06      8.7736e-07    -5.19788e-07        0.769727        0.346464
     5.524e+07        -0.374014       -0.039131     0.000316642        0.020357    -0.000372048     1.83237e-05     0.000143001     -0.00011842
                    0.000372942       0.0201906       -0.223163        0.951807     6.03541e-06     9.25697e-07    -3.46314e-06     3.18351e-06
                   -0.000371074     1.76014e-05     5.59061e-06     1.06283e-06         0.77473        0.343273     6.40344e-08    -7.91556e-07
                    0.000143082    -0.000118574    -4.86447e-06     1.88872e-06     8.47784e-07    -5.74395e-07        0.771346        0.342736
     5.526e+07        -0.350761       -0.017498     2.05094e-05       0.0199359    -0.000369559      3.2538e-05     0.000145304    -0.000128455
                    7.82598e-05       0.0197741        -0.21706        0.953474     6.02017e-06     6.49665e-07    -3.43754e-06     3.34801e-06
                   -0.000368667     3.17629e-05     5.58249e-06     8.14578e-07        0.776273        0.339496     1.36958e-08    -8.02624e-07
                    0.000145431    -0.000128614    -4.96524e-06     2.11674e-06     8.13265e-07    -6.27354e-07        0.772892        0.338979
     5.528e+07        -0.325371       0.0017936     -0.00032776       0.0195533    -0.000366067     4.67553e-05     0.000146939    -0.000139007
                   -0.000267979       0.0193959       -0.210915        0.955063     5.98516e-06     3.71925e-07    -3.40115e-06     3.51573e-06
                   -0.000365263     4.59336e-05     5.55734e-06     5.64391e-07        0.777737        0.335697    -3.87035e-08    -8.10009e-07
                    0.000147113    -0.000139176    -5.05307e-06      2.3599e-06     7.73803e-07    -6.78101e-07        0.774358        0.335198
      5.53e+07        -0.298048       0.0184516    -0.000725267        0.019216    -0.000361546     6.08768e-05     0.000147831    -0.000150025
                   -0.000662878       0.0190629       -0.204731        0.956569     5.92968e-06     9.44032e-08     -3.3533e-06      3.6857e-06
                   -0.000360834     6.00156e-05     5.51452e-06     3.13899e-07        0.779118        0.331882    -9.28539e-08    -8.13383e-07
                    0.000148052    -0.000150209    -5.12596e-06     2.61742e-06     7.29465e-07    -7.26045e-07        0.775743        0.331403
     5.532e+07        -0.269046        0.032201     -0.00116806       0.0189309    -0.000355977      7.4796e-05     0.000147905    -0.000161448
                     -0.0011025       0.0187816       -0.198513        0.957986     5.85329e-06    -1.80808e-07     -3.2934e-06     3.85682e-06
                   -0.000355362      7.3903e-05      5.4536e-06     6.48717e-08        0.780415         0.32806    -1.48391e-07    -8.12443e-07
                    0.000148174     -0.00016165    -5.18189e-06     2.88822e-06       6.804e-07     -7.7058e-07        0.777042        0.327599
     5.534e+07        -0.238662       0.0427925     -0.00165112       0.0187043    -0.000349359     8.84005e-05     0.000147094      -0.0001732
                    -0.00158183       0.0185586       -0.192267         0.95931      5.7558e-06    -4.51481e-07      -3.221e-06     4.02789e-06
                   -0.000348844     8.74841e-05     5.37435e-06    -1.80796e-07        0.781623        0.324239    -2.04896e-07    -8.06925e-07
                    0.000147411    -0.000173427    -5.21894e-06     3.17088e-06     6.26836e-07    -8.11092e-07        0.778253        0.323796
     5.536e+07        -0.207239       0.0500118     -0.00216834       0.0185422    -0.000341703     0.000101574      0.00014534    -0.000185195
                    -0.00209483       0.0183995       -0.186001        0.960535     5.63734e-06    -7.15297e-07     -3.1358e-06     4.19756e-06
                   -0.000341291     0.000100643     5.27684e-06    -4.21122e-07        0.782744        0.320429    -2.61904e-07    -7.96615e-07
                    0.000145705    -0.000185451     -5.2353e-06     3.46369e-06      5.6909e-07    -8.46977e-07        0.779376        0.320004
     5.538e+07        -0.175158       0.0536885     -0.00271265       0.0184498     -0.00033304     0.000114198     0.000142594    -0.000197336
                    -0.00263444       0.0183096       -0.179722        0.961658     5.49836e-06    -9.69893e-07     -3.0377e-06     4.36443e-06
                   -0.000332731     0.000113262     5.16137e-06     -6.5408e-07        0.783778        0.316638    -3.18909e-07    -7.81357e-07
                    0.000143006    -0.000197626    -5.22939e-06     3.76462e-06     5.07566e-07     -8.7765e-07        0.780412        0.316231
      5.54e+07        -0.142835       0.0537042     -0.00327602       0.0184312    -0.000323415     0.000126158     0.000138821    -0.000209515
                     -0.0031927        0.018293       -0.173438        0.962678     5.33967e-06    -1.21292e-06    -2.92678e-06     4.52701e-06
                    -0.00032321     0.000125227     5.02859e-06    -8.77646e-07        0.784725        0.312877    -3.75372e-07    -7.61063e-07
                    0.000139278    -0.000209845    -5.19983e-06     4.07139e-06     4.42751e-07    -9.02564e-07        0.781362        0.312487
     5.542e+07        -0.110706       0.0499995     -0.00384971       0.0184897    -0.000312892     0.000137342     0.000133999     -0.00022162
                    -0.00376094       0.0183528       -0.167158        0.963593     5.16245e-06    -1.44212e-06    -2.80336e-06     4.68383e-06
                   -0.000312791     0.000136426     4.87944e-06    -1.08985e-06        0.785591        0.309156    -4.30737e-07    -7.35718e-07
                      0.0001345    -0.000221995    -5.14558e-06     4.38143e-06     3.75213e-07    -9.21218e-07         0.78223        0.308782
     5.544e+07       -0.0792244       0.0425793     -0.00442439       0.0186271    -0.000301553     0.000147647     0.000128125    -0.000233531
                    -0.00432988       0.0184909       -0.160892        0.964402     4.96822e-06    -1.65536e-06    -2.66799e-06     4.83339e-06
                   -0.000301553     0.000146755     4.71516e-06    -1.28885e-06        0.786379        0.305482    -4.84442e-07    -7.05385e-07
                    0.000128667    -0.000233955    -5.06594e-06     4.69203e-06     3.05586e-07    -9.33173e-07         0.78302        0.305124
     5.546e+07       -0.0488428       0.0315157     -0.00499038       0.0188441    -0.000289493     0.000156981      0.00012121    -0.000245129
                    -0.00488995       0.0187077       -0.154648        0.965107     4.75884e-06    -1.85073e-06    -2.52143e-06     4.97427e-06
                   -0.000289592     0.000156123     4.53728e-06    -1.47295e-06        0.787096        0.301865    -5.35937e-07    -6.70208e-07
                    0.000121792    -0.000245608     -4.9606e-06     5.00032e-06     2.34561e-07     -9.3806e-07        0.783738        0.301523
     5.548e+07       -0.0200045       0.0169485     -0.00553792       0.0191395    -0.000276823     0.000165266     0.000113287    -0.000256296
                    -0.00543147       0.0190022       -0.148435        0.965711     4.53644e-06     -2.0266e-06     -2.3647e-06     5.10513e-06
                   -0.000277016     0.000164452     4.34761e-06     -1.6407e-06        0.787749        0.298312    -5.84693e-07    -6.30401e-07
                    0.000113905    -0.000256833    -4.82967e-06     5.30338e-06      1.6287e-07    -9.35578e-07        0.784392        0.297986
      5.55e+07       0.00687023    -0.000917013     -0.00605743       0.0195111    -0.000263663     0.000172439     0.000104401    -0.000266917
                    -0.00594495       0.0193722       -0.142262        0.966218     4.30345e-06    -2.18165e-06    -2.19903e-06     5.22474e-06
                   -0.000263946     0.000171678     4.14818e-06     -1.7909e-06        0.788347         0.29483    -6.30226e-07    -5.86253e-07
                    0.000105052    -0.000267518    -4.67365e-06     5.59831e-06     9.12684e-08    -9.25501e-07         0.78499         0.29452
     5.552e+07        0.0313955      -0.0218148     -0.00653975        0.019955    -0.000250142     0.000178457     9.46166e-05    -0.000276888
                    -0.00642131       0.0198137       -0.136138        0.966633     4.06246e-06    -2.31493e-06    -2.02584e-06     5.33207e-06
                   -0.000250508     0.000177759     3.94119e-06    -1.92269e-06        0.788898        0.291423    -6.72103e-07    -5.38105e-07
                    9.52992e-05    -0.000277555     -4.4935e-06     5.88229e-06     2.05168e-08     -9.0766e-07        0.785542        0.291129
     5.554e+07        0.0532302      -0.0454256     -0.00697642       0.0204662    -0.000236394     0.000183297     8.40126e-05    -0.000286111
                    -0.00685219       0.0203217       -0.130069        0.966961     3.81621e-06    -2.42591e-06    -1.84675e-06     5.42624e-06
                   -0.000236834     0.000182668     3.72901e-06    -2.03553e-06        0.789414        0.288097    -7.09959e-07    -4.86345e-07
                    8.47237e-05    -0.000286849    -4.29052e-06     6.15266e-06    -4.86342e-08    -8.81933e-07        0.786056        0.287818
     5.556e+07        0.0720866      -0.0713862     -0.00735987       0.0210384    -0.000222552     0.000186952     7.26793e-05    -0.000294506
                    -0.00723011         0.02089       -0.124061         0.96721     3.56751e-06    -2.51446e-06    -1.66354e-06     5.50658e-06
                   -0.000223059     0.000186401     3.51407e-06    -2.12923e-06        0.789903        0.284852    -7.43504e-07    -4.31383e-07
                    7.34168e-05    -0.000295317    -4.06638e-06     6.40699e-06    -1.15459e-07     -8.4821e-07        0.786545         0.28459
     5.558e+07        0.0877368      -0.0993002     -0.00768363       0.0216644    -0.000208748     0.000189437     6.07168e-05    -0.000302003
                    -0.00754867       0.0215114        -0.11812        0.967386     3.31921e-06    -2.58089e-06    -1.47815e-06     5.57262e-06
                   -0.000209312     0.000188971     3.29883e-06      -2.204e-06        0.790375        0.281692     -7.7253e-07     -3.7363e-07
                    6.14795e-05    -0.000302892    -3.82302e-06     6.64309e-06    -1.79266e-07     -8.0635e-07        0.787016        0.281446
      5.56e+07         0.100016        -0.12875     -0.00794243       0.0223362    -0.000195107     0.000190785     4.82321e-05    -0.000308552
                    -0.00780267       0.0221781        -0.11225        0.967498     3.07411e-06    -2.62595e-06    -1.29267e-06     5.62412e-06
                   -0.000195718      0.00019041      3.0858e-06    -2.26041e-06        0.790842        0.278616    -7.96916e-07     -3.1347e-07
                    4.90197e-05    -0.000309522    -3.56261e-06      6.8591e-06    -2.39403e-07    -7.56119e-07        0.787482        0.278385
     5.562e+07         0.108823       -0.159308     -0.00813229       0.0230456    -0.000181747     0.000191043     3.53354e-05    -0.000314115
                     -0.0079882       0.0228817       -0.106453        0.967554     2.83496e-06    -2.65078e-06    -1.10939e-06       5.661e-06
                   -0.000182394     0.000190764     2.87745e-06     -2.2994e-06        0.791311        0.275622    -8.16626e-07    -2.51225e-07
                    3.61492e-05    -0.000315171    -3.28748e-06     7.05343e-06    -2.95248e-07    -6.97093e-07        0.787949        0.275408
     5.564e+07          0.11412        -0.19055     -0.00825057       0.0237838    -0.000168774     0.000190274     2.21378e-05    -0.000318673
                    -0.00810266       0.0236135       -0.100734        0.967559     2.60447e-06    -2.65699e-06    -9.30872e-07     5.68338e-06
                   -0.000169444     0.000190096     2.67627e-06    -2.32232e-06        0.791793        0.272711    -8.31705e-07    -1.87105e-07
                    2.29811e-05    -0.000319821    -3.00002e-06     7.22479e-06    -3.46183e-07    -6.28509e-07        0.788428        0.272513
     5.566e+07         0.115929       -0.222063     -0.00829589       0.0245421    -0.000156281      0.00018855     8.74794e-06    -0.000322221
                     -0.0081447       0.0243651      -0.0950922        0.967521     2.38534e-06    -2.64666e-06    -7.60104e-07     5.69151e-06
                   -0.000156962     0.000188478     2.48481e-06    -2.33096e-06        0.792293         0.26988    -8.42278e-07    -1.21143e-07
                    9.62728e-06    -0.000323469    -2.70261e-06      7.3721e-06    -3.91541e-07    -5.49033e-07        0.788926          0.2697
     5.568e+07         0.114322       -0.253457     -0.00826811       0.0253123    -0.000144351     0.000185951    -4.73029e-06    -0.000324767
                     -0.0081142        0.025128      -0.0895315        0.967444     2.18039e-06    -2.62244e-06    -6.00835e-07     5.68573e-06
                   -0.000145026     0.000185992     2.30587e-06    -2.32766e-06        0.792819        0.267131    -8.48534e-07    -5.30791e-08
                   -3.80404e-06    -0.000326126    -2.39754e-06      7.4944e-06    -4.30495e-07    -4.56343e-07         0.78945        0.266968
      5.57e+07         0.109419       -0.284371     -0.00816818       0.0260861    -0.000133049     0.000182563    -1.82001e-05    -0.000326329
                    -0.00801213       0.0258943      -0.0840556        0.967331     1.99281e-06    -2.58783e-06    -4.58217e-07     5.66651e-06
                     -0.0001337     0.000182722     2.14275e-06    -2.31559e-06        0.793376        0.264467    -8.50707e-07     1.78423e-08
                   -1.72091e-05    -0.000327818    -2.08694e-06      7.5906e-06    -4.61812e-07    -3.46379e-07        0.790004        0.264321
     5.572e+07         0.101374       -0.314482     -0.00799807       0.0268564    -0.000122432     0.000178472    -3.15738e-05    -0.000326933
                    -0.00784042       0.0266567      -0.0786722        0.967182     1.82677e-06    -2.54779e-06    -3.40169e-07     5.63444e-06
                   -0.000123036     0.000178759      1.9999e-06    -2.29937e-06        0.793968        0.261899    -8.49033e-07     9.32788e-08
                   -3.04891e-05    -0.000328582    -1.77266e-06      7.6591e-06    -4.83301e-07      -2.118e-07        0.790593         0.26177
     5.574e+07        0.0903633       -0.343505     -0.00776054       0.0276166    -0.000112548     0.000173757    -4.47746e-05    -0.000326606
                     -0.0076018       0.0274085      -0.0733985        0.966988     1.68851e-06    -2.51033e-06    -2.60538e-07      5.5905e-06
                   -0.000113069     0.000174187     1.88435e-06    -2.28667e-06        0.794601         0.25945    -8.43603e-07     1.76719e-07
                   -4.35474e-05    -0.000328467    -1.45616e-06     7.69677e-06    -4.90357e-07    -3.85255e-08        0.791223         0.25934
     5.576e+07        0.0765609       -0.371204       -0.007459       0.0283613    -0.000103448     0.000168488    -5.77385e-05    -0.000325359
                    -0.00729959       0.0281444      -0.0682767        0.966732     1.58933e-06    -2.49101e-06    -2.47465e-07     5.53755e-06
                   -0.000103827     0.000169086     1.80903e-06    -2.29278e-06        0.795284        0.257182    -8.33832e-07     2.75924e-07
                   -5.62821e-05    -0.000327538    -1.13845e-06     7.69649e-06    -4.71445e-07     2.03184e-07        0.791901         0.25709
     5.578e+07        0.0600841       -0.397396     -0.00709701       0.0290876    -9.52205e-05     0.000162698    -7.04142e-05    -0.000323149
                    -0.00693717       0.0288608       -0.063425        0.966365     1.55332e-06    -2.52887e-06    -3.70355e-07     5.48798e-06
                   -9.53344e-05     0.000163511      1.8023e-06    -2.35694e-06        0.796051        0.255256    -8.15837e-07     4.10741e-07
                   -6.85585e-05    -0.000325891    -8.20928e-07     7.63894e-06     -3.9007e-07     5.86379e-07        0.792662        0.255182
      5.58e+07        0.0407505        -0.42192     -0.00667603       0.0297985    -8.81651e-05     0.000156336    -8.27222e-05    -0.000319688
                    -0.00651582       0.0295589      -0.0592876        0.965799     1.63819e-06    -2.76725e-06    -8.56671e-07     5.52469e-06
                   -8.76564e-05     0.000157447     1.93601e-06    -2.62643e-06        0.797119        0.254217    -7.63123e-07     6.46638e-07
                   -8.01029e-05    -0.000323764    -5.16633e-07     7.45598e-06    -7.59949e-08     1.33775e-06         0.79372        0.254161
     5.582e+07        0.0163229       -0.443258     -0.00615726       0.0305251    -8.44367e-05     0.000149724    -9.32859e-05    -0.000313155
                    -0.00600265       0.0302575      -0.0587315        0.966018     1.69211e-06    -4.20757e-06    -2.71972e-06     6.88273e-06
                    -8.1495e-05     0.000150624     2.12427e-06    -4.17418e-06        0.801595        0.256464    -3.01447e-07     1.26575e-06
                   -9.02214e-05    -0.000322991    -5.26881e-07     6.79422e-06     2.20747e-06     3.17082e-06        0.798162         0.25644
     5.584e+07       0.00310508       -0.455432     -0.00555677       0.0309299    -7.44408e-05     0.000151821    -9.87456e-05    -0.000317047
                    -0.00544542       0.0306937      -0.0460347        0.976221    -2.23414e-06    -2.24587e-06      3.6156e-06     9.33266e-06
                   -7.56352e-05     0.000147711    -2.16588e-06    -2.41434e-06        0.808241        0.238464     3.84404e-07    -5.39511e-07
                   -0.000109479    -0.000319658    -1.28885e-06     8.40701e-06     2.90118e-06    -4.60292e-06        0.804879        0.238514
     5.586e+07       -0.0196829       -0.479293      -0.0051042       0.0315453    -6.67913e-05     0.000141739    -0.000114071    -0.000312674
                    -0.00496977       0.0313057      -0.0392787        0.970511    -5.76182e-07    -1.27275e-06     2.89622e-06     6.28729e-06
                   -6.86045e-05      0.00014066    -4.63422e-07    -1.28463e-06        0.801924        0.238175    -4.53278e-07    -2.12068e-07
                   -0.000118267    -0.000312396    -1.18558e-07     8.27633e-06    -1.46847e-07      -2.561e-06         0.79856        0.238203
     5.588e+07       -0.0448249       -0.496757     -0.00452833       0.0321102    -6.18731e-05      0.00013432    -0.000125331    -0.000307292
                    -0.00439141        0.031861      -0.0345524        0.969124    -2.00246e-07    -1.21173e-06     2.46493e-06     5.72208e-06
                   -6.33925e-05     0.000133983    -5.46433e-08     -1.2188e-06        0.801736        0.236979    -5.63866e-07    -4.34861e-09
                    -0.00012786    -0.000307314     3.16367e-07     8.08654e-06    -4.99743e-07    -1.70903e-06        0.798365        0.237021
      5.59e+07       -0.0706836       -0.511415     -0.00390947       0.0326241    -5.75934e-05     0.000127494    -0.000135539    -0.000301781
                    -0.00377393       0.0323668      -0.0296889        0.968553    -8.54687e-08    -1.14645e-06     2.31959e-06     5.47011e-06
                   -5.89211e-05     0.000127484     7.42707e-08    -1.16833e-06        0.802346        0.235031    -5.83806e-07      1.1078e-07
                   -0.000137405    -0.000302052     6.35793e-07     7.95191e-06    -5.94569e-07    -1.29762e-06        0.798971         0.23509
     5.592e+07        -0.097193       -0.523776     -0.00326001       0.0330926    -5.38714e-05     0.000120914    -0.000145077    -0.000296037
                    -0.00312732        0.032828      -0.0247405        0.968248     -4.8992e-08    -1.06371e-06     2.28311e-06     5.30178e-06
                    -5.5065e-05     0.000121098     1.16328e-07     -1.1053e-06        0.803197        0.232777    -5.78776e-07     1.88181e-07
                   -0.000146608    -0.000296475     9.14526e-07     7.83502e-06    -6.29463e-07    -1.04827e-06        0.799819        0.232856
     5.594e+07        -0.124224       -0.533993     -0.00258598       0.0335173    -5.06802e-05     0.000114512    -0.000154042    -0.000290044
                    -0.00245695        0.033246      -0.0197488        0.968063    -4.14369e-08    -9.70541e-07     2.29557e-06     5.16549e-06
                   -5.17701e-05     0.000114828     1.24532e-07    -1.03325e-06        0.804161        0.230366    -5.63592e-07     2.46208e-07
                   -0.000155382    -0.000290599     1.17041e-06     7.72257e-06    -6.42646e-07    -8.75458e-07        0.800782        0.230465
     5.596e+07        -0.151626       -0.542156     -0.00189194       0.0338993    -4.79903e-05     0.000108279    -0.000162472    -0.000283823
                    -0.00176711       0.0336217      -0.0147331        0.967944     -4.4666e-08    -8.71967e-07     2.33221e-06     5.04425e-06
                    -4.8994e-05     0.000108695     1.18619e-07    -9.55961e-07        0.805195        0.227857    -5.43315e-07     2.92477e-07
                   -0.000163698    -0.000284462     1.40965e-06     7.60945e-06    -6.45508e-07    -7.45126e-07        0.801816        0.227977
     5.598e+07        -0.179251       -0.548342     -0.00118183       0.0342392    -4.57694e-05     0.000102225    -0.000170391    -0.000277403
                    -0.00106163       0.0339558     -0.00970249        0.967866    -5.07789e-08    -7.71134e-07     2.38122e-06     4.93112e-06
                   -4.66978e-05      0.00010272     1.07337e-07    -8.76024e-07        0.806279        0.225278    -5.20166e-07     3.30715e-07
                   -0.000171547    -0.000278103     1.63497e-06     7.49363e-06    -6.42465e-07    -6.41174e-07        0.802899        0.225419
       5.6e+07        -0.206959       -0.552625    -0.000459201        0.034538    -4.39835e-05     9.63626e-05    -0.000177817    -0.000270816
                   -0.000343974       0.0342492      -0.0046611        0.967816    -5.60036e-08    -6.70076e-07     2.43633e-06     4.82289e-06
                    -4.4844e-05     9.69223e-05     9.49763e-08     -7.9518e-07        0.807399        0.222643    -4.95304e-07     3.62985e-07
                    -0.00017893    -0.000271561     1.84779e-06     7.37441e-06    -6.35581e-07    -5.55018e-07         0.80402        0.222806
     5.602e+07        -0.234622       -0.555085     0.000272735       0.0347967    -4.25986e-05     9.07055e-05    -0.000184767    -0.000264094
                    0.000382715       0.0345028     0.000389299        0.967783    -5.84806e-08    -5.70168e-07       2.494e-06     4.71797e-06
                   -4.33965e-05     9.13184e-05     8.37511e-08    -7.14629e-07         0.80855        0.219959    -4.69415e-07     3.90541e-07
                   -0.000185856    -0.000264871     2.04902e-06      7.2517e-06    -6.25974e-07    -4.81664e-07        0.805171        0.220144
     5.604e+07        -0.262123       -0.555803      0.00101107       0.0350163    -4.15812e-05     8.52643e-05    -0.000191258    -0.000257266
                     0.00111557       0.0347178      0.00544819        0.967763    -5.73238e-08    -4.72364e-07     2.55213e-06     4.61552e-06
                   -4.23205e-05     8.59217e-05     7.48115e-08    -6.35224e-07        0.809724        0.217232    -4.42946e-07     4.14209e-07
                   -0.000192335    -0.000258067     2.23928e-06      7.1257e-06    -6.14331e-07    -4.17999e-07        0.806347        0.217438
     5.606e+07        -0.289359       -0.554864      0.00175316       0.0351982     -4.0899e-05     8.00476e-05    -0.000197308     -0.00025036
                     0.00185198       0.0348952       0.0105157        0.967751    -5.21767e-08    -3.77347e-07     2.60944e-06     4.51508e-06
                   -4.15828e-05     8.07422e-05     6.87234e-08    -5.57581e-07        0.810918        0.214464    -4.16209e-07     4.34571e-07
                   -0.000198383    -0.000251177     2.41909e-06     6.99675e-06    -6.01117e-07    -3.61974e-07        0.807542        0.214691
     5.608e+07        -0.316239       -0.552352      0.00249663       0.0353435    -4.05208e-05     7.50616e-05    -0.000202935      -0.0002434
                     0.00258961       0.0350365       0.0155921        0.967744    -4.29829e-08    -2.85605e-07     2.66515e-06     4.41643e-06
                   -4.11519e-05     7.57874e-05     6.57163e-08    -4.82151e-07        0.812127        0.211656    -3.89433e-07     4.52058e-07
                   -0.000204013    -0.000244227      2.5889e-06     6.86527e-06    -5.86671e-07    -3.12174e-07        0.808753        0.211905
      5.61e+07        -0.342683       -0.548353      0.00323936       0.0354538    -4.04172e-05     7.03103e-05    -0.000208157     -0.00023641
                     0.00332636       0.0351431        0.020678        0.967738      -2.986e-08    -1.97484e-07     2.71879e-06     4.31944e-06
                    -4.0998e-05      7.1062e-05     6.58206e-08    -4.09258e-07        0.813348         0.20881    -3.62791e-07     4.67009e-07
                   -0.000209243    -0.000237242     2.74912e-06     6.73168e-06    -5.71257e-07    -2.67583e-07        0.809976        0.209082
     5.612e+07        -0.368621       -0.542953      0.00397942       0.0355303    -4.05604e-05     6.57955e-05    -0.000212991    -0.000229408
                     0.00406034       0.0352163        0.025774         0.96773    -1.30255e-08    -1.13225e-07     2.77009e-06     4.22406e-06
                   -4.10931e-05     6.65686e-05     6.89476e-08    -3.39137e-07        0.814578        0.205928    -3.36419e-07     4.79695e-07
                   -0.000214088    -0.000230242     2.90014e-06     6.59641e-06    -5.55088e-07    -2.27444e-07        0.811209        0.206221
     5.614e+07        -0.393992       -0.536236      0.00471513       0.0355746    -4.09242e-05     6.15175e-05    -0.000217456    -0.000222414
                     0.00478988       0.0352575       0.0308804        0.967719      7.2473e-09    -3.29885e-08     2.81891e-06     4.13025e-06
                   -4.14109e-05     6.23078e-05     7.49379e-08     -2.7195e-07        0.815814        0.203009    -3.10424e-07     4.90346e-07
                   -0.000218567    -0.000223245     3.04236e-06     6.45985e-06    -5.38343e-07    -1.91178e-07        0.812447        0.203324
     5.616e+07        -0.418747       -0.528285      0.00544498       0.0355881    -4.14844e-05     5.74748e-05    -0.000221569    -0.000215442
                     0.00551348       0.0352682       0.0359978        0.967701     3.06572e-08     4.31308e-08     2.86519e-06     4.03802e-06
                   -4.19271e-05     5.82787e-05     8.35917e-08    -2.07802e-07        0.817052        0.200055    -2.84889e-07     4.99156e-07
                   -0.000222696    -0.000216267     3.17615e-06     6.32238e-06     -5.2117e-07    -1.58324e-07        0.813689        0.200392
     5.618e+07        -0.442841       -0.519181      0.00616764       0.0355723    -4.22183e-05     5.36647e-05    -0.000225347    -0.000208506
                     0.00622985       0.0352499       0.0411264        0.967676     5.68925e-08     1.15088e-07     2.90895e-06     3.94735e-06
                   -4.26188e-05     5.44788e-05     9.46885e-08    -1.46754e-07        0.818291        0.197066    -2.59882e-07     5.06295e-07
                   -0.000226491    -0.000209322     3.30186e-06     6.18435e-06    -5.03699e-07     -1.2851e-07        0.814932        0.197426
      5.62e+07         -0.46624       -0.509001      0.00688194       0.0355285     -4.3105e-05     5.00834e-05    -0.000228808    -0.000201618
                     0.00693783       0.0352039       0.0462665         0.96764     8.56425e-08     1.82879e-07     2.95022e-06     3.85826e-06
                   -4.34652e-05     5.09048e-05        1.08e-07    -8.88291e-08        0.819529        0.194044    -2.35456e-07     5.11915e-07
                   -0.000229969    -0.000202423     3.41986e-06     6.04607e-06    -4.86042e-07    -1.01429e-07        0.816173        0.194425
     5.622e+07        -0.488913       -0.497822      0.00758686       0.0354582    -4.41252e-05     4.67261e-05    -0.000231967    -0.000194789
                     0.00763641       0.0351317       0.0514183        0.967593     1.16604e-07     2.46532e-07     2.98908e-06     3.77074e-06
                   -4.44469e-05     4.75522e-05     1.23296e-07    -3.40241e-08        0.820763        0.190988    -2.11653e-07     5.16149e-07
                   -0.000233147    -0.000195581     3.53049e-06     5.90782e-06    -4.68295e-07    -7.68209e-08        0.817411        0.191391
     5.624e+07        -0.510836       -0.485715      0.00828153       0.0353629     -4.5261e-05     4.35875e-05    -0.000234841    -0.000188026
                     0.00832473       0.0350347       0.0565818        0.967532     1.49488e-07     3.06101e-07     3.02562e-06      3.6848e-06
                    -4.5546e-05     4.44158e-05     1.40356e-07     1.76889e-08         0.82199        0.187901    -1.88505e-07     5.19121e-07
                   -0.000236038    -0.000188803     3.63409e-06     5.76986e-06    -4.50542e-07    -5.44615e-08        0.818643        0.188325
     5.626e+07        -0.531993        -0.47275      0.00896517       0.0352437    -4.64962e-05     4.06615e-05    -0.000237444    -0.000181338
                     0.00900203       0.0349141       0.0617571        0.967455     1.84019e-07      3.6166e-07     3.05993e-06     3.60041e-06
                   -4.67462e-05     4.14899e-05     1.58963e-07     6.63558e-08        0.823211        0.184781    -1.66035e-07      5.2094e-07
                   -0.000238659    -0.000182099     3.73098e-06     5.63241e-06    -4.32858e-07    -3.41566e-08        0.819868        0.185227
     5.628e+07        -0.552368       -0.458993      0.00963713        0.035102    -4.78157e-05     3.79417e-05    -0.000239791    -0.000174731
                     0.00966767       0.0347712        0.066944        0.967362     2.19939e-07       4.133e-07     3.09212e-06     3.51757e-06
                   -4.80325e-05     3.87682e-05     1.78917e-07     1.12037e-07        0.824421        0.181631    -1.44261e-07     5.21707e-07
                   -0.000241024    -0.000175474     3.82148e-06     5.49568e-06    -4.15304e-07    -1.57346e-08        0.821084        0.182098
      5.63e+07        -0.571951       -0.444509       0.0102969        0.034939     -4.9206e-05     3.54214e-05    -0.000241896    -0.000168211
                      0.0103211       0.0346073       0.0721424        0.967251     2.57008e-07     4.61123e-07     3.12229e-06     3.43627e-06
                   -4.93913e-05     3.62441e-05     2.00024e-07     1.54805e-07        0.825621         0.17845    -1.23195e-07     5.21516e-07
                   -0.000243146    -0.000168935     3.90588e-06     5.35984e-06    -3.97936e-07     9.57554e-10        0.822289        0.178939
     5.632e+07        -0.590738       -0.429356       0.0109439       0.0347561    -5.06546e-05     3.30935e-05    -0.000243771    -0.000161781
                      0.0109619       0.0344236       0.0773521        0.967121     2.95002e-07     5.05243e-07     3.15054e-06     3.35649e-06
                     -5.081e-05      3.3911e-05     2.22109e-07     1.94741e-07        0.826809        0.175241    -1.02843e-07     5.20452e-07
                   -0.000245038    -0.000162485     3.98447e-06     5.22504e-06    -3.80803e-07     1.60573e-08        0.823482        0.175751
     5.634e+07        -0.608723       -0.413592       0.0115778       0.0345543    -5.21502e-05     3.09511e-05     -0.00024543    -0.000155446
                      0.0115896       0.0342213       0.0825727        0.966969     3.33717e-07     5.45778e-07     3.17697e-06      3.2782e-06
                   -5.22774e-05     3.17617e-05     2.45005e-07     2.31933e-07        0.827982        0.172003    -8.32086e-08     5.18592e-07
                   -0.000246713    -0.000156128     4.05754e-06     5.09144e-06    -3.63944e-07     2.96893e-08        0.824662        0.172535
     5.636e+07        -0.625907       -0.397273       0.0121983       0.0343347    -5.36824e-05     2.89867e-05    -0.000246883    -0.000149209
                      0.0122039       0.0340014       0.0878041        0.966796     3.72962e-07     5.82854e-07      3.2017e-06     3.20137e-06
                    -5.3783e-05     2.97893e-05     2.68561e-07     2.66472e-07        0.829141        0.168738      -6.429e-08      5.1601e-07
                   -0.000248182    -0.000149868     4.12536e-06     4.95914e-06    -3.47393e-07     4.19668e-08        0.825826        0.169291
     5.638e+07        -0.642292       -0.380448       0.0128052       0.0340984     -5.5242e-05     2.71933e-05    -0.000248144    -0.000143071
                      0.0128046       0.0337651       0.0930458          0.9666     4.12565e-07     6.16598e-07      3.2248e-06     3.12599e-06
                   -5.53176e-05     2.79866e-05     2.92636e-07     2.98455e-07        0.830283        0.165447    -4.60838e-08     5.12773e-07
                   -0.000249457    -0.000143708     4.18816e-06     4.82824e-06    -3.31182e-07     5.29937e-08        0.826975         0.16602
      5.64e+07        -0.657882       -0.363167       0.0133981       0.0338465    -5.68204e-05     2.55637e-05    -0.000249221    -0.000137034
                      0.0133916       0.0335133       0.0982975         0.96638     4.52368e-07     6.47139e-07     3.24637e-06     3.05201e-06
                   -5.68726e-05     2.63467e-05     3.17103e-07      3.2798e-07        0.831408         0.16213     -2.8584e-08     5.08943e-07
                   -0.000250549    -0.000137648     4.24621e-06     4.69884e-06    -3.15333e-07     6.28657e-08        0.828106        0.162724
     5.642e+07        -0.672683       -0.345476       0.0139771       0.0335799    -5.84102e-05     2.40908e-05    -0.000250126    -0.000131101
                      0.0139646       0.0332469        0.103559        0.966134     4.92228e-07     6.74609e-07      3.2665e-06     2.97942e-06
                   -5.84405e-05     2.48626e-05     3.41845e-07     3.55146e-07        0.832514        0.158788    -1.17822e-08     5.04576e-07
                   -0.000251467     -0.00013169     4.29972e-06     4.57101e-06    -2.99868e-07     7.16707e-08         0.82922        0.159403
     5.644e+07        -0.686702       -0.327419       0.0145419       0.0332996    -6.00044e-05     2.27676e-05    -0.000250867    -0.000125271
                      0.0145235       0.0329671        0.108829        0.965863     5.32015e-07     6.99138e-07     3.28527e-06     2.90817e-06
                   -6.00143e-05     2.35273e-05     3.66757e-07     3.80053e-07        0.833601        0.155422     4.33142e-09     4.99727e-07
                   -0.000252222    -0.000125836     4.34892e-06     4.44482e-06    -2.84802e-07     7.94905e-08        0.830314        0.156057
     5.646e+07        -0.699948       -0.309035       0.0150926       0.0330065    -6.15969e-05     2.15872e-05    -0.000251454    -0.000119545
                      0.0150683       0.0326745        0.114107        0.965565     5.71611e-07     7.20853e-07     3.30275e-06     2.83823e-06
                   -6.15878e-05     2.23342e-05     3.91742e-07     4.02799e-07        0.834669        0.152034     1.97682e-08     4.94444e-07
                   -0.000252821    -0.000120085     4.39403e-06      4.3203e-06    -2.70149e-07     8.64006e-08        0.831388        0.152689
     5.648e+07        -0.712431       -0.290365       0.0156291       0.0327013    -6.31822e-05      2.0543e-05    -0.000251896    -0.000113924
                       0.015599       0.0323702        0.119394         0.96524      6.1091e-07     7.39884e-07     3.31902e-06     2.76957e-06
                   -6.31554e-05     2.12765e-05     4.16714e-07     4.23481e-07        0.835715        0.148623     3.45408e-08     4.88774e-07
                   -0.000253274    -0.000114439     4.43523e-06     4.19752e-06    -2.55918e-07     9.24712e-08        0.832442        0.149298
      5.65e+07        -0.724162       -0.271445       0.0161513        0.032385    -6.47552e-05     1.96283e-05      -0.0002522    -0.000108408
                      0.0161156       0.0320548        0.124688        0.964886     6.49817e-07     7.56354e-07     3.33414e-06     2.70215e-06
                   -6.47123e-05     2.03479e-05     4.41596e-07     4.42198e-07        0.836739        0.145191     4.86625e-08     4.82758e-07
                   -0.000253589    -0.000108897     4.47272e-06     4.07651e-06    -2.42118e-07      9.7768e-08        0.833474        0.145886
     5.652e+07        -0.735153       -0.252308       0.0166594       0.0320583    -6.63117e-05      1.8837e-05    -0.000252375    -0.000102995
                      0.0166181       0.0317291        0.129989        0.964503     6.88248e-07     7.70388e-07     3.34818e-06     2.63594e-06
                   -6.62539e-05     1.95422e-05     4.66317e-07     4.59042e-07        0.837742        0.141739     6.21477e-08     4.76436e-07
                   -0.000253774    -0.000103458     4.50669e-06     3.95729e-06    -2.28753e-07     1.02352e-07        0.834484        0.142454
     5.654e+07        -0.745416       -0.232989       0.0171534       0.0317219    -6.78476e-05     1.81627e-05    -0.000252427    -9.76859e-05
                      0.0171066        0.031394        0.135296        0.964091     7.26126e-07     7.82103e-07      3.3612e-06     2.57091e-06
                   -6.77763e-05     1.88532e-05     4.90815e-07     4.74106e-07        0.838721        0.138267     7.50111e-08     4.69845e-07
                   -0.000253835     -9.8123e-05      4.5373e-06     3.83989e-06    -2.15825e-07      1.0628e-07        0.835472        0.139002
     5.656e+07        -0.754965       -0.213516       0.0176333       0.0313766    -6.93596e-05     1.75996e-05    -0.000252363    -9.24797e-05
                      0.0175811         0.03105         0.14061        0.963648     7.63385e-07     7.91618e-07     3.37325e-06     2.50702e-06
                   -6.92759e-05      1.8275e-05     5.15036e-07     4.87479e-07        0.839677        0.134776      8.7268e-08     4.63019e-07
                   -0.000253779    -9.28906e-05     4.56471e-06     3.72432e-06    -2.03335e-07     1.09605e-07        0.836436        0.135531
     5.658e+07        -0.763813       -0.193919       0.0180993        0.031023    -7.08444e-05      1.7142e-05    -0.000252189    -8.73756e-05
                      0.0180418       0.0306979        0.145928        0.963175     7.99965e-07     7.99045e-07     3.38438e-06     2.44425e-06
                   -7.07497e-05     1.78019e-05      5.3893e-07      4.9925e-07        0.840608        0.131268     9.89341e-08     4.55988e-07
                   -0.000253614    -8.77603e-05     4.58909e-06     3.61059e-06    -1.91283e-07     1.12377e-07        0.837376        0.132042
      5.66e+07        -0.771974       -0.174224       0.0185514       0.0306618    -7.22995e-05     1.67842e-05    -0.000251913    -8.23727e-05
                      0.0184887       0.0303382        0.151251         0.96267     8.35814e-07     8.04494e-07     3.39465e-06     2.38254e-06
                   -7.21949e-05     1.74286e-05     5.62454e-07     5.09502e-07        0.841516        0.127743     1.10025e-07     4.48782e-07
                   -0.000253344     -8.2731e-05     4.61058e-06     3.49872e-06    -1.79666e-07     1.14642e-07        0.838292        0.128536
     5.662e+07        -0.779462       -0.154458       0.0189899       0.0302935    -7.37225e-05     1.65209e-05    -0.000251539    -7.74698e-05
                       0.018922       0.0299716        0.156578        0.962133     8.70886e-07     8.08071e-07     3.40409e-06     2.32189e-06
                   -7.36092e-05     1.71496e-05     5.85571e-07     5.18317e-07        0.842398        0.124201     1.20557e-07     4.41428e-07
                   -0.000252977    -7.78017e-05     4.62931e-06      3.3887e-06    -1.68481e-07     1.16444e-07        0.839183        0.125013
     5.664e+07        -0.786292       -0.134644       0.0194148       0.0299188    -7.51114e-05      1.6347e-05    -0.000251072    -7.26659e-05
                      0.0193419       0.0295987        0.161908        0.961565     9.05142e-07     8.09879e-07     3.41276e-06     2.26225e-06
                   -7.49904e-05     1.69599e-05     6.08248e-07     5.25775e-07        0.843255        0.120644     1.30546e-07     4.33952e-07
                   -0.000252516    -7.29714e-05     4.64543e-06     3.28053e-06    -1.57723e-07     1.17823e-07        0.840049        0.121475
     5.666e+07        -0.792479       -0.114805       0.0198263       0.0295382    -7.64643e-05     1.62575e-05    -0.000250519    -6.79597e-05
                      0.0197484         0.02922        0.167241        0.960964     9.38548e-07     8.10017e-07     3.42068e-06     2.20359e-06
                   -7.63368e-05     1.68546e-05     6.30457e-07      5.3195e-07        0.844087        0.117073     1.40009e-07     4.26376e-07
                   -0.000251968    -6.82388e-05     4.65906e-06     3.17421e-06    -1.47386e-07     1.18818e-07        0.840889        0.117922
     5.668e+07        -0.798036      -0.0949605       0.0202245       0.0291522    -7.77797e-05     1.62477e-05    -0.000249884    -6.33499e-05
                      0.0201418        0.028836        0.172576        0.960329     9.71076e-07     8.08581e-07     3.42789e-06     2.14589e-06
                   -7.76468e-05      1.6829e-05     6.52173e-07     5.36917e-07        0.844893        0.113487      1.4896e-07     4.18722e-07
                   -0.000251337    -6.36027e-05     4.67032e-06     3.06973e-06    -1.37463e-07     1.19465e-07        0.841704        0.114355
      5.67e+07         -0.80298      -0.0751318       0.0206097       0.0287613    -7.90565e-05     1.63131e-05    -0.000249172    -5.88352e-05
                      0.0205223       0.0284472        0.177912        0.959662      1.0027e-06     8.05661e-07     3.43444e-06     2.08911e-06
                   -7.89191e-05     1.68785e-05     6.73377e-07     5.40745e-07        0.845672        0.109889     1.57417e-07     4.11011e-07
                   -0.000250629    -5.90618e-05     4.67933e-06     2.96709e-06    -1.27947e-07     1.19796e-07        0.842493        0.110775
     5.672e+07        -0.807326       -0.055337        0.020982        0.028366    -8.02935e-05     1.64492e-05    -0.000248386    -5.44142e-05
                      0.0208899        0.028054         0.18325        0.958961      1.0334e-06     8.01348e-07     3.44035e-06     2.03323e-06
                   -8.01526e-05     1.69989e-05     6.94051e-07     5.43502e-07        0.846425        0.106278     1.65394e-07      4.0326e-07
                   -0.000249846    -5.46147e-05     4.68619e-06     2.86627e-06    -1.18831e-07     1.19842e-07        0.843255        0.107182
     5.674e+07        -0.811087      -0.0355936       0.0213416       0.0279667    -8.14899e-05     1.66519e-05    -0.000247532    -5.00856e-05
                      0.0212449        0.027657        0.188588        0.958226     1.06317e-06     7.95724e-07     3.44565e-06     1.97823e-06
                   -8.13464e-05      1.7186e-05     7.14182e-07     5.45253e-07        0.847151        0.102655     1.72908e-07     3.95486e-07
                   -0.000248994    -5.02601e-05     4.69102e-06     2.76726e-06    -1.10104e-07     1.19634e-07        0.843991        0.103577
     5.676e+07        -0.814279      -0.0159176       0.0216887       0.0275639    -8.26449e-05     1.69172e-05    -0.000246612    -4.58479e-05
                      0.0215876       0.0272566        0.193925        0.957458     1.09198e-06     7.88872e-07     3.45036e-06     1.92407e-06
                   -8.24997e-05     1.74359e-05     7.33759e-07      5.4606e-07        0.847851       0.0990218     1.79974e-07     3.87707e-07
                   -0.000248077    -4.59965e-05      4.6939e-06     2.67005e-06     -1.0176e-07     1.19198e-07          0.8447       0.0999618
     5.678e+07        -0.816916      0.00367542       0.0220234        0.027158    -8.37581e-05     1.72413e-05    -0.000245631    -4.16996e-05
                       0.021918       0.0268531        0.199262        0.956654     1.11984e-06     7.80871e-07     3.45452e-06     1.87073e-06
                   -8.36121e-05     1.77446e-05     7.52774e-07     5.45981e-07        0.848523       0.0953782     1.86607e-07     3.79936e-07
                   -0.000247097    -4.18226e-05     4.69493e-06     2.57461e-06    -9.37867e-08      1.1856e-07        0.845382       0.0963358
      5.68e+07        -0.819014       0.0231714       0.0223461       0.0267494     -8.4829e-05     1.76205e-05    -0.000244592    -3.76394e-05
                      0.0222363       0.0264469        0.204597        0.955817     1.14673e-06     7.71794e-07     3.45815e-06     1.81819e-06
                    -8.4683e-05     1.81087e-05      7.7122e-07     5.45073e-07        0.849169        0.091725     1.92822e-07     3.72187e-07
                   -0.000246059    -3.77369e-05     4.69421e-06     2.48094e-06    -8.61759e-08     1.17744e-07        0.846037       0.0927001
     5.682e+07        -0.820587       0.0425569       0.0226568       0.0263384    -8.58574e-05     1.80513e-05    -0.000243499    -3.36657e-05
                      0.0225429       0.0260385         0.20993        0.954945     1.17265e-06     7.61713e-07     3.46126e-06     1.76643e-06
                   -8.57123e-05     1.85246e-05     7.89095e-07     5.43391e-07        0.849787       0.0880631     1.98633e-07     3.64472e-07
                   -0.000244966    -3.37379e-05     4.69181e-06     2.38902e-06    -7.89172e-08     1.16773e-07        0.846665       0.0890554
     5.684e+07         -0.82165       0.0618194       0.0229558       0.0259254    -8.68432e-05     1.85303e-05    -0.000242355    -2.97772e-05
                      0.0228378       0.0256281        0.215261        0.954038      1.1976e-06     7.50698e-07     3.46389e-06     1.71541e-06
                   -8.66996e-05      1.8989e-05     8.06395e-07     5.40987e-07        0.850377       0.0843929     2.04056e-07     3.56804e-07
                   -0.000243822    -2.98243e-05     4.68783e-06     2.29882e-06    -7.20003e-08     1.15667e-07        0.847266       0.0854023
     5.686e+07        -0.822216       0.0809474       0.0232433       0.0255107    -8.77863e-05     1.90544e-05    -0.000241162    -2.59723e-05
                      0.0231213       0.0252161        0.220588        0.953097     1.22158e-06     7.38813e-07     3.46605e-06     1.66513e-06
                    -8.7645e-05     1.94988e-05     8.23122e-07     5.37908e-07        0.850941       0.0807152     2.09104e-07     3.49192e-07
                   -0.000242628    -2.59945e-05     4.68233e-06     2.21033e-06    -6.54147e-08     1.14445e-07         0.84784       0.0817415
     5.688e+07          -0.8223       0.0999299       0.0235195       0.0250946    -8.86867e-05     1.96205e-05    -0.000239924    -2.22496e-05
                      0.0233936       0.0248027        0.225912         0.95212     1.24459e-06     7.26122e-07     3.46775e-06     1.61556e-06
                   -8.85485e-05     2.00508e-05     8.39276e-07     5.34204e-07        0.851476       0.0770306      2.1379e-07     3.41647e-07
                   -0.000241389    -2.22472e-05      4.6754e-06     2.12353e-06    -5.91498e-08     1.13127e-07        0.848386       0.0780737
      5.69e+07        -0.821915        0.118757       0.0237846       0.0246775    -8.95447e-05     2.02258e-05    -0.000238644    -1.86077e-05
                       0.023655       0.0243884        0.231231        0.951109     1.26664e-06     7.12684e-07     3.46903e-06     1.56668e-06
                   -8.94102e-05     2.06423e-05      8.5486e-07     5.29917e-07        0.851985       0.0733397      2.1813e-07     3.34177e-07
                   -0.000240107    -1.85809e-05      4.6671e-06     2.03839e-06    -5.31952e-08     1.11728e-07        0.848904       0.0743993
     5.692e+07        -0.821077        0.137419       0.0240389       0.0242596    -9.03604e-05     2.08674e-05    -0.000237323    -1.50451e-05
                      0.0239055       0.0239733        0.236545        0.950063     1.28774e-06     6.98557e-07     3.46989e-06     1.51848e-06
                   -9.02302e-05     2.12704e-05     8.69879e-07     5.25091e-07        0.852465       0.0696432     2.22135e-07     3.26791e-07
                   -0.000238784    -1.49942e-05     4.65751e-06      1.9549e-06      -4.754e-08     1.10266e-07        0.849395       0.0707192
     5.694e+07        -0.819797        0.155908       0.0242824       0.0238412    -9.11341e-05     2.15427e-05    -0.000235964    -1.15604e-05
                      0.0241454       0.0235578        0.241853        0.948981     1.30789e-06     6.83795e-07     3.47034e-06     1.47092e-06
                   -9.10089e-05     2.19326e-05     8.84338e-07     5.19765e-07        0.852919       0.0659415     2.25819e-07     3.19496e-07
                   -0.000237422    -1.14856e-05     4.64668e-06     1.87303e-06    -4.21736e-08     1.08753e-07        0.849859       0.0670338
     5.696e+07         -0.81809        0.174215       0.0245155       0.0234226    -9.18662e-05     2.22492e-05     -0.00023457    -8.15219e-06
                       0.024375       0.0231421        0.247155        0.947865     1.32711e-06     6.68451e-07     3.47041e-06     1.42401e-06
                   -9.17466e-05     2.26263e-05     8.98242e-07      5.1398e-07        0.853344       0.0622354     2.29194e-07       3.123e-07
                   -0.000236026    -8.05379e-06     4.63468e-06     1.79276e-06    -3.70854e-08     1.07206e-07        0.850295       0.0633437
     5.698e+07        -0.815968        0.192332       0.0247384       0.0230039    -9.25571e-05     2.29845e-05    -0.000233143     -4.8191e-06
                      0.0245944       0.0227264        0.252451        0.946713      1.3454e-06     6.52574e-07      3.4701e-06     1.37771e-06
                   -9.24436e-05     2.33491e-05       9.116e-07     5.07771e-07        0.853742       0.0585253     2.32273e-07     3.05208e-07
                   -0.000234595    -4.69737e-06     4.62157e-06     1.71408e-06    -3.22646e-08     1.05635e-07        0.850704       0.0596495
       5.7e+07        -0.813445        0.210254       0.0249512       0.0225855    -9.32072e-05     2.37463e-05    -0.000231685    -1.55974e-06
                      0.0248039        0.022311         0.25774        0.945527     1.36277e-06     6.36211e-07     3.46943e-06     1.33202e-06
                   -9.31004e-05     2.40988e-05     9.24418e-07     5.01172e-07        0.854113       0.0548118     2.35067e-07     2.98226e-07
                   -0.000233133    -1.41496e-06      4.6074e-06     1.63695e-06    -2.77008e-08     1.04053e-07        0.851086       0.0559517
     5.702e+07        -0.810533        0.227973       0.0251541       0.0221676    -9.38171e-05     2.45324e-05    -0.000230198     1.62725e-06
                      0.0250036        0.021896        0.263021        0.944305     1.37924e-06     6.19409e-07     3.46841e-06     1.28692e-06
                   -9.37175e-05     2.48732e-05     9.36706e-07     4.94217e-07        0.854457       0.0510955     2.37589e-07     2.91359e-07
                   -0.000231642      1.7948e-06     4.59223e-06     1.56136e-06    -2.33836e-08     1.02471e-07         0.85144        0.052251
     5.704e+07        -0.807245        0.245484       0.0253475       0.0217502    -9.43873e-05     2.53407e-05    -0.000228684     4.74322e-06
                      0.0251937       0.0214818        0.268294        0.943049     1.39481e-06     6.02209e-07     3.46705e-06     1.24239e-06
                   -9.42954e-05     2.56703e-05     9.48473e-07     4.86937e-07        0.854773       0.0473769      2.3985e-07     2.84613e-07
                   -0.000230123     4.93324e-06     4.57612e-06     1.48728e-06    -1.93024e-08     1.00899e-07        0.851767       0.0485477
     5.706e+07        -0.803593        0.262782       0.0255313       0.0213338    -9.49184e-05     2.61694e-05    -0.000227145     7.78949e-06
                      0.0253745       0.0210684        0.273558        0.941758     1.40952e-06     5.84652e-07     3.46536e-06     1.19842e-06
                   -9.48346e-05      2.6488e-05     9.59728e-07     4.79362e-07        0.855062       0.0436565     2.41861e-07     2.77991e-07
                   -0.000228579     8.00168e-06      4.5591e-06      1.4147e-06    -1.54471e-08     9.93463e-08        0.852067       0.0448425
     5.708e+07        -0.799589        0.279861        0.025706       0.0209184     -9.5411e-05     2.70165e-05    -0.000225582     1.07674e-05
                      0.0255462       0.0206562        0.278812        0.940432     1.42336e-06     5.66779e-07     3.46335e-06       1.155e-06
                   -9.53357e-05     2.73245e-05     9.70482e-07     4.71519e-07        0.855323       0.0399347     2.43632e-07     2.71496e-07
                   -0.000227011     1.10014e-05     4.54123e-06     1.34358e-06    -1.18076e-08     9.78214e-08        0.852339       0.0411358
      5.71e+07        -0.795245        0.296717       0.0258716       0.0205042    -9.58656e-05     2.78802e-05    -0.000223998     1.36781e-05
                      0.0257089       0.0202451        0.284057        0.939071     1.43635e-06     5.48625e-07     3.46104e-06     1.11211e-06
                   -9.57993e-05     2.81781e-05     9.80745e-07     4.63435e-07        0.855558       0.0362122     2.45175e-07     2.65133e-07
                   -0.000225421     1.39338e-05     4.52256e-06     1.27391e-06     -8.3738e-09     9.63324e-08        0.852585       0.0374282
     5.712e+07        -0.790572        0.313346       0.0260284       0.0200914    -9.62831e-05     2.87589e-05    -0.000222393     1.65231e-05
                      0.0258629       0.0198355        0.289292        0.937676     1.44852e-06     5.30225e-07     3.45842e-06     1.06975e-06
                   -9.62262e-05      2.9047e-05     9.90529e-07     4.55134e-07        0.855766       0.0324893     2.46499e-07     2.58905e-07
                    -0.00022381        1.68e-05     4.50312e-06     1.20566e-06    -5.13604e-09     9.48866e-08        0.852804         0.03372
     5.714e+07        -0.785582        0.329744       0.0261766       0.0196802    -9.66639e-05     2.96509e-05    -0.000220769     1.93034e-05
                      0.0260083       0.0194274        0.294516        0.936246     1.45987e-06     5.11614e-07     3.45552e-06     1.02789e-06
                   -9.66168e-05     2.99297e-05     9.99844e-07     4.46642e-07        0.855947       0.0287666     2.47615e-07     2.52813e-07
                    -0.00022218     1.96013e-05     4.48297e-06     1.13882e-06    -2.08461e-09     9.34906e-08        0.852996       0.0300119
     5.716e+07        -0.780285        0.345909       0.0263163       0.0192707    -9.70089e-05     3.05547e-05    -0.000219128     2.20204e-05
                      0.0261454       0.0190211        0.299729        0.934782     1.47042e-06     4.92822e-07     3.45233e-06     9.86533e-07
                   -9.69718e-05     3.08246e-05      1.0087e-06      4.3798e-07        0.856101       0.0250445     2.48532e-07      2.4686e-07
                   -0.000220532     2.23389e-05     4.46213e-06     1.07336e-06     7.89962e-10     9.21505e-08        0.853162       0.0263042
     5.718e+07        -0.774693        0.361837       0.0264478       0.0188629    -9.73187e-05     3.14689e-05    -0.000217471     2.46753e-05
                      0.0262743       0.0186166        0.304931        0.933284     1.48019e-06      4.7388e-07     3.44887e-06     9.45662e-07
                   -9.72921e-05     3.17303e-05     1.01711e-06     4.29169e-07        0.856229       0.0213234     2.49259e-07     2.41048e-07
                   -0.000218868     2.50141e-05     4.44065e-06     1.00925e-06     3.49696e-09     9.08719e-08        0.853301       0.0225974
      5.72e+07        -0.768817        0.377525       0.0265713       0.0184572     -9.7594e-05     3.23921e-05      -0.0002158     2.72692e-05
                      0.0263952       0.0182141         0.31012        0.931752     1.48919e-06     4.54817e-07     3.44514e-06     9.05268e-07
                   -9.75781e-05     3.26454e-05     1.02509e-06     4.20229e-07         0.85633       0.0176038     2.49806e-07     2.35378e-07
                   -0.000217189      2.7628e-05     4.41856e-06     9.46484e-07     6.04549e-09     8.96597e-08        0.853413       0.0188918
     5.722e+07        -0.762666        0.392972       0.0266868       0.0180536    -9.78356e-05      3.3323e-05    -0.000214114     2.98033e-05
                      0.0265084       0.0178137        0.315297        0.930187     1.49745e-06     4.35659e-07     3.44114e-06      8.6534e-07
                   -9.78308e-05     3.35686e-05     1.03265e-06     4.11178e-07        0.856405       0.0138861     2.50182e-07     2.29853e-07
                   -0.000215497     3.01819e-05     4.39591e-06     8.85029e-07     8.44447e-09     8.85186e-08          0.8535       0.0151881
     5.724e+07        -0.756251        0.408175       0.0267947       0.0176521    -9.80442e-05     3.42604e-05    -0.000212417     3.22787e-05
                      0.0266139       0.0174155        0.320461        0.928587     1.50497e-06     4.16432e-07      3.4369e-06     8.25869e-07
                   -9.80506e-05     3.44987e-05     1.03979e-06     4.02035e-07        0.856454       0.0101707     2.50394e-07     2.24472e-07
                   -0.000213792     3.26767e-05     4.37272e-06     8.24868e-07     1.07026e-08     8.74526e-08         0.85356       0.0114865
     5.726e+07        -0.749582        0.423133       0.0268951        0.017253    -9.82204e-05      3.5203e-05    -0.000210709     3.46967e-05
                       0.026712       0.0170197        0.325611        0.926954     1.51178e-06      3.9716e-07      3.4324e-06     7.86845e-07
                   -9.82384e-05     3.54344e-05     1.04654e-06     3.92816e-07        0.856477      0.00645803     2.50453e-07     2.19238e-07
                   -0.000212076     3.51138e-05     4.34902e-06     7.65979e-07     1.28285e-08     8.64652e-08        0.853594       0.0077874
     5.728e+07        -0.742668        0.437845       0.0269882       0.0168564    -9.83651e-05     3.61498e-05    -0.000208991     3.70583e-05
                      0.0268029       0.0166263        0.330748        0.925288      1.5179e-06     3.77866e-07     3.42766e-06     7.48261e-07
                   -9.83949e-05     3.63748e-05      1.0529e-06     3.83537e-07        0.856475      0.00274844     2.50364e-07     2.14149e-07
                   -0.000210349     3.74941e-05     4.32485e-06     7.08341e-07     1.48303e-08     8.55599e-08        0.853603      0.00409128
      5.73e+07         -0.73552        0.452309       0.0270741       0.0164622     -9.8479e-05     3.70997e-05    -0.000207263     3.93645e-05
                      0.0268867       0.0162354         0.33587        0.923589     1.52333e-06     3.58571e-07     3.42269e-06     7.10107e-07
                   -9.85208e-05     3.73187e-05     1.05889e-06     3.74212e-07        0.856446    -0.000957666     2.50138e-07     2.09208e-07
                   -0.000208614     3.98188e-05     4.30024e-06     6.51932e-07     1.67163e-08     8.47393e-08        0.853586     0.000398498
     5.732e+07        -0.728146        0.466524        0.027153       0.0160707    -9.85628e-05     3.80518e-05    -0.000205528     4.16166e-05
                      0.0269636       0.0158471        0.340978        0.921857     1.52811e-06     3.39297e-07     3.41749e-06     6.72374e-07
                   -9.86168e-05     3.82651e-05     1.06451e-06     3.64854e-07        0.856393     -0.00465993      2.4978e-07     2.04413e-07
                    -0.00020687      4.2089e-05     4.27521e-06     5.96733e-07     1.84943e-08     8.40061e-08        0.853544     -0.00329059
     5.734e+07        -0.720555         0.48049       0.0272252       0.0156818    -9.86172e-05      3.9005e-05    -0.000203786     4.38154e-05
                      0.0270338       0.0154616        0.346071        0.920092     1.53223e-06     3.20062e-07     3.41206e-06     6.35056e-07
                   -9.86836e-05     3.92132e-05     1.06978e-06     3.55478e-07        0.856314     -0.00835798     2.49299e-07     1.99765e-07
                   -0.000205119     4.43057e-05      4.2498e-06     5.42722e-07     2.01721e-08     8.33622e-08        0.853477     -0.00697561
     5.736e+07        -0.712756        0.494206       0.0272907       0.0152958    -9.86429e-05     3.99586e-05    -0.000202038     4.59622e-05
                      0.0270974       0.0150788        0.351149        0.918295     1.53573e-06     3.00884e-07     3.40641e-06     5.98144e-07
                    -9.8722e-05      4.0162e-05     1.07471e-06     3.46094e-07         0.85621      -0.0120515     2.48702e-07     1.95264e-07
                   -0.000203362     4.64699e-05     4.22402e-06     4.89879e-07     2.17572e-08     8.28096e-08        0.853385      -0.0106562
     5.738e+07        -0.704758        0.507672       0.0273498       0.0149126    -9.86408e-05     4.09117e-05    -0.000200284     4.80578e-05
                      0.0271547       0.0146989        0.356211        0.916466     1.53862e-06     2.81781e-07     3.40055e-06     5.61631e-07
                   -9.87326e-05     4.11106e-05     1.07932e-06     3.36714e-07        0.856082      -0.0157401     2.47995e-07     1.90909e-07
                   -0.000201599     4.85828e-05     4.19792e-06     4.38184e-07     2.32568e-08     8.23497e-08        0.853268      -0.0143321
      5.74e+07         -0.69657        0.520888       0.0274026       0.0145323    -9.86114e-05     4.18634e-05    -0.000198526     5.01033e-05
                      0.0272057       0.0143219        0.361256        0.914604     1.54092e-06     2.62768e-07     3.39448e-06      5.2551e-07
                   -9.87161e-05     4.20583e-05     1.08361e-06     3.27349e-07        0.855928      -0.0194235     2.47186e-07     1.86699e-07
                   -0.000199832     5.06451e-05      4.1715e-06     3.87618e-07     2.46781e-08     8.19837e-08        0.853126      -0.0180029
     5.742e+07        -0.688199        0.533855       0.0274493        0.014155    -9.85556e-05     4.28131e-05    -0.000196764     5.20996e-05
                      0.0272507       0.0139479        0.366285        0.912711     1.54264e-06     2.43861e-07      3.3882e-06     4.89775e-07
                   -9.86733e-05     4.30044e-05     1.08759e-06     3.18007e-07        0.855751      -0.0231013      2.4628e-07     1.82635e-07
                   -0.000198061     5.26581e-05     4.14479e-06      3.3816e-07     2.60279e-08     8.17127e-08         0.85296      -0.0216682
     5.744e+07        -0.679653        0.546572         0.02749       0.0137808     -9.8474e-05       4.376e-05       -0.000195     5.40478e-05
                      0.0272897       0.0135769        0.371298        0.910787     1.54379e-06     2.25074e-07     3.38172e-06     4.54419e-07
                   -9.86048e-05     4.39481e-05     1.09128e-06     3.08699e-07        0.855549      -0.0267732     2.45285e-07     1.78715e-07
                   -0.000196287     5.46226e-05     4.11781e-06     2.89791e-07      2.7313e-08     8.15372e-08         0.85277      -0.0253279
     5.746e+07        -0.670941        0.559039       0.0275248       0.0134097    -9.83673e-05     4.47034e-05    -0.000193233     5.59488e-05
                       0.027323       0.0132091        0.376293        0.908831      1.5444e-06      2.0642e-07     3.37504e-06     4.19435e-07
                   -9.85114e-05     4.48887e-05     1.09468e-06     2.99433e-07        0.855323       -0.030439     2.44205e-07     1.74939e-07
                    -0.00019451     5.65395e-05      4.0906e-06     2.42493e-07     2.85399e-08     8.14578e-08        0.852555      -0.0289815
     5.748e+07        -0.662069        0.571259       0.0275541       0.0130417    -9.82362e-05     4.56429e-05    -0.000191465     5.78034e-05
                      0.0273507       0.0128443         0.38127        0.906844     1.54449e-06     1.87912e-07     3.36818e-06     3.84817e-07
                   -9.83936e-05     4.58257e-05     1.09781e-06     2.90216e-07        0.855073      -0.0340984     2.43048e-07     1.71305e-07
                   -0.000192732     5.84099e-05     4.06316e-06     1.96246e-07     2.97148e-08     8.14748e-08        0.852317      -0.0326288
      5.75e+07        -0.653046         0.58323       0.0275778       0.0126769    -9.80814e-05     4.65777e-05    -0.000189695     5.96127e-05
                       0.027373       0.0124828         0.38623        0.904827     1.54406e-06     1.69561e-07     3.36112e-06     3.50561e-07
                   -9.82523e-05     4.67585e-05     1.10068e-06     2.81056e-07          0.8548      -0.0377509     2.41819e-07     1.67812e-07
                   -0.000190953     6.02345e-05     4.03551e-06     1.51031e-07     3.08438e-08      8.1588e-08        0.852055      -0.0362695
     5.752e+07        -0.643878        0.594955       0.0275961       0.0123154    -9.79036e-05     4.75073e-05    -0.000187926     6.13775e-05
                      0.0273899       0.0121245        0.391172        0.902779     1.54313e-06     1.51378e-07     3.35388e-06     3.16659e-07
                   -9.80879e-05     4.76864e-05      1.1033e-06     2.71959e-07        0.854503      -0.0413965     2.40523e-07     1.64459e-07
                   -0.000189173     6.20144e-05     4.00768e-06      1.0683e-07      3.1933e-08     8.17974e-08         0.85177      -0.0399033
     5.754e+07        -0.634573        0.606434       0.0276092       0.0119571    -9.77034e-05     4.84312e-05    -0.000186157     6.30987e-05
                      0.0274017       0.0117695        0.396095        0.900701     1.54173e-06     1.33373e-07     3.34646e-06     2.83107e-07
                   -9.79013e-05     4.86091e-05     1.10568e-06     2.62931e-07        0.854183      -0.0450348     2.39166e-07     1.61245e-07
                   -0.000187394     6.37504e-05     3.97969e-06     6.36252e-08     3.29878e-08     8.21027e-08        0.851462      -0.0435299
     5.756e+07        -0.625137        0.617669       0.0276172       0.0116021    -9.74815e-05      4.9349e-05    -0.000184389     6.47771e-05
                      0.0274084       0.0114178           0.401        0.898593     1.53985e-06     1.15555e-07     3.33886e-06     2.49899e-07
                    -9.7693e-05     4.95259e-05     1.10782e-06     2.53979e-07         0.85384      -0.0486655     2.37752e-07     1.58167e-07
                   -0.000185615     6.54433e-05     3.95154e-06     2.13982e-08      3.4014e-08     8.25033e-08        0.851131      -0.0471491
     5.758e+07        -0.615577         0.62866       0.0276203       0.0112505    -9.72386e-05     5.02601e-05    -0.000182622     6.64137e-05
                      0.0274103       0.0110694        0.405885        0.896455     1.53753e-06     9.79346e-08     3.33109e-06      2.1703e-07
                   -9.74637e-05     5.04364e-05     1.10974e-06     2.45106e-07        0.853475      -0.0522884     2.36287e-07     1.55226e-07
                   -0.000183838     6.70941e-05     3.92326e-06    -1.98687e-08     3.50169e-08     8.29984e-08        0.850777      -0.0507607
      5.76e+07        -0.605899        0.639409       0.0276186       0.0109023    -9.69752e-05     5.11642e-05    -0.000180857     6.80091e-05
                      0.0274075       0.0107244        0.410751        0.894288     1.53477e-06     8.05183e-08     3.32315e-06     1.84496e-07
                   -9.72139e-05     5.13403e-05     1.11146e-06     2.36319e-07        0.853087      -0.0559033     2.34776e-07     1.52418e-07
                   -0.000182063     6.87035e-05     3.89487e-06     -6.0193e-08     3.60015e-08     8.35875e-08        0.850401      -0.0543643
     5.762e+07         -0.59611        0.649918       0.0276122       0.0105575     -9.6692e-05     5.20608e-05    -0.000179095     6.95644e-05
                         0.0274       0.0103827        0.415598        0.892092     1.53159e-06     6.33139e-08     3.31504e-06     1.52291e-07
                   -9.69444e-05     5.22371e-05     1.11296e-06     2.27621e-07        0.852677      -0.0595098     2.33223e-07     1.49743e-07
                    -0.00018029     7.02724e-05     3.86638e-06    -9.95917e-08     3.69729e-08     8.42693e-08        0.850002      -0.0579598
     5.764e+07        -0.586216        0.660188       0.0276013       0.0102161    -9.63896e-05     5.29496e-05    -0.000177335     7.10801e-05
                       0.027388       0.0100445        0.420425        0.889868     1.52801e-06     4.63285e-08     3.30677e-06     1.20412e-07
                   -9.66557e-05     5.31264e-05     1.11428e-06     2.19015e-07        0.852244      -0.0631079     2.31633e-07     1.47199e-07
                    -0.00017852     7.18015e-05      3.8378e-06    -1.38082e-07      3.7936e-08     8.50429e-08        0.849582      -0.0615468
     5.766e+07        -0.576223        0.670221        0.027586      0.00987807    -9.60687e-05     5.38303e-05    -0.000175579     7.25572e-05
                      0.0273717       0.0097097        0.425231        0.887614     1.52403e-06     2.95683e-08     3.29834e-06     8.88529e-08
                   -9.63484e-05     5.40079e-05     1.11541e-06     2.10506e-07         0.85179      -0.0666972     2.30009e-07     1.44783e-07
                   -0.000176753     7.32917e-05     3.80914e-06    -1.75681e-07     3.88952e-08     8.59071e-08        0.849139      -0.0651252
     5.768e+07        -0.566137        0.680018       0.0275664      0.00954354    -9.57297e-05     5.47025e-05    -0.000173827     7.39964e-05
                      0.0273512      0.00937833        0.430018        0.885333     1.51967e-06     1.30392e-08     3.28976e-06     5.76103e-08
                   -9.60232e-05     5.48813e-05     1.11636e-06     2.02097e-07        0.851314      -0.0702775     2.28357e-07     1.42495e-07
                    -0.00017499     7.47437e-05     3.78043e-06    -2.12404e-07     3.98551e-08     8.68605e-08        0.848675      -0.0686948
      5.77e+07        -0.555963        0.689582       0.0275426      0.00921248    -9.53733e-05     5.55659e-05    -0.000172079     7.53985e-05
                      0.0273265      0.00905041        0.434783        0.883023     1.51495e-06    -3.25344e-09     3.28102e-06     2.66799e-08
                   -9.56804e-05     5.57462e-05     1.11715e-06      1.9379e-07        0.850817      -0.0738486      2.2668e-07     1.40332e-07
                   -0.000173231     7.61583e-05     3.75167e-06    -2.48268e-07     4.08199e-08     8.79017e-08        0.848189      -0.0722554
     5.772e+07        -0.545707        0.698913       0.0275148       0.0088849    -9.50001e-05     5.64203e-05    -0.000170335     7.67642e-05
                      0.0272979      0.00872595        0.439528        0.880686     1.50987e-06    -1.93048e-08     3.27213e-06    -3.94225e-09
                   -9.53209e-05     5.66025e-05     1.11778e-06     1.85587e-07        0.850299      -0.0774104     2.24982e-07     1.38293e-07
                   -0.000171476     7.75363e-05     3.72288e-06     -2.8329e-07     4.17939e-08     8.90291e-08        0.847683      -0.0758067
     5.774e+07        -0.535373        0.708015       0.0274831      0.00856079    -9.46106e-05     5.72655e-05    -0.000168596     7.80942e-05
                      0.0272654      0.00840496        0.444251        0.878322     1.50446e-06    -3.51106e-08     3.26309e-06    -3.42602e-08
                    -9.4945e-05     5.74498e-05     1.11825e-06     1.77492e-07         0.84976      -0.0809626     2.23267e-07     1.36375e-07
                   -0.000169727     7.88783e-05     3.69407e-06    -3.17484e-07     4.27809e-08     9.02413e-08        0.847155      -0.0793485
     5.776e+07        -0.524968        0.716889       0.0274476      0.00824019    -9.42054e-05     5.81011e-05    -0.000166863     7.93892e-05
                      0.0272291      0.00808745        0.448954         0.87593     1.49872e-06    -5.06667e-08     3.25391e-06    -6.42777e-08
                   -9.45533e-05     5.82879e-05     1.11859e-06     1.69505e-07          0.8492      -0.0845051     2.21538e-07     1.34576e-07
                   -0.000167982     8.01851e-05     3.66525e-06    -3.50866e-07     4.37848e-08     9.15365e-08        0.846607      -0.0828807
     5.778e+07        -0.514496        0.725537       0.0274084      0.00792307     -9.3785e-05      5.8927e-05    -0.000165135       8.065e-05
                      0.0271892      0.00777342        0.453634        0.873512     1.49267e-06    -6.59698e-08     3.24459e-06    -9.39984e-08
                   -9.41464e-05     5.91166e-05     1.11878e-06     1.61628e-07        0.848619      -0.0880376     2.19799e-07     1.32895e-07
                   -0.000166243     8.14574e-05     3.63643e-06    -3.83453e-07     4.48092e-08     9.29129e-08        0.846038      -0.0864031
      5.78e+07        -0.503962        0.733961       0.0273656      0.00760946    -9.33499e-05     5.97429e-05    -0.000163413     8.18772e-05
                      0.0271458      0.00746286        0.458293        0.871067     1.48631e-06    -8.10165e-08     3.23512e-06    -1.23426e-07
                   -9.37247e-05     5.99356e-05     1.11885e-06     1.53863e-07        0.848018        -0.09156     2.18053e-07     1.31329e-07
                    -0.00016451     8.26959e-05     3.60762e-06    -4.15258e-07     4.58576e-08     9.43687e-08        0.845449      -0.0899154
     5.782e+07        -0.493371        0.742164       0.0273194      0.00729934    -9.29006e-05     6.05488e-05    -0.000161697     8.30716e-05
                       0.027099      0.00715579         0.46293        0.868596     1.47967e-06    -9.58042e-08     3.22552e-06    -1.52564e-07
                   -9.32889e-05     6.07449e-05      1.1188e-06      1.4621e-07        0.847398      -0.0950721     2.16303e-07     1.29877e-07
                   -0.000162783     8.39012e-05     3.57883e-06    -4.46296e-07     4.69334e-08     9.59021e-08         0.84484      -0.0934176
     5.784e+07        -0.482728        0.750147       0.0272697      0.00699271    -9.24377e-05     6.13445e-05    -0.000159987     8.42337e-05
                      0.0270488      0.00685219        0.467545        0.866099     1.47275e-06     -1.1033e-07     3.21579e-06    -1.81415e-07
                   -9.28393e-05     6.15443e-05     1.11864e-06     1.38671e-07        0.846757      -0.0985737     2.14553e-07     1.28537e-07
                   -0.000161063     8.50741e-05     3.55007e-06    -4.76583e-07     4.80398e-08     9.75111e-08        0.844211      -0.0969095
     5.786e+07        -0.472036        0.757913       0.0272169      0.00668958    -9.19616e-05     6.21297e-05    -0.000158285     8.53642e-05
                      0.0269954      0.00655206        0.472138        0.863577     1.46556e-06    -1.24593e-07     3.20593e-06    -2.09983e-07
                   -9.23765e-05     6.23335e-05     1.11836e-06     1.31245e-07        0.846097       -0.102065     2.12804e-07     1.27305e-07
                   -0.000159349     8.62151e-05     3.52135e-06    -5.06132e-07     4.91798e-08     9.91937e-08        0.843562       -0.100391
     5.788e+07          -0.4613        0.765463       0.0271608      0.00638994    -9.14728e-05     6.29044e-05    -0.000156589     8.64638e-05
                      0.0269389      0.00625541        0.476708         0.86103     1.45812e-06    -1.38591e-07     3.19594e-06    -2.38272e-07
                   -9.19009e-05     6.31125e-05     1.11799e-06     1.23934e-07        0.845417       -0.105545     2.11062e-07     1.26181e-07
                   -0.000157642      8.7325e-05     3.49268e-06    -5.34958e-07     5.03565e-08     1.00948e-07        0.842894       -0.103861
      5.79e+07        -0.450525        0.772802       0.0271017      0.00609377    -9.09719e-05     6.36685e-05      -0.0001549     8.75331e-05
                      0.0268794      0.00596221        0.481255        0.858457     1.45043e-06    -1.52321e-07     3.18582e-06    -2.66283e-07
                    -9.1413e-05     6.38811e-05     1.11753e-06     1.16738e-07        0.844719       -0.109014     2.09327e-07     1.25162e-07
                   -0.000155942     8.84043e-05     3.46407e-06    -5.63075e-07     5.15726e-08     1.02772e-07        0.842207       -0.107321
     5.792e+07        -0.439713        0.779929       0.0270397      0.00580108    -9.04591e-05     6.44218e-05    -0.000153219     8.85726e-05
                       0.026817      0.00567247         0.48578         0.85586     1.44251e-06    -1.65784e-07     3.17558e-06    -2.94021e-07
                   -9.09133e-05     6.46392e-05     1.11697e-06     1.09656e-07        0.844001       -0.112473     2.07602e-07     1.24245e-07
                    -0.00015425     8.94536e-05     3.43552e-06    -5.90496e-07     5.28307e-08     1.04663e-07        0.841501        -0.11077
     5.794e+07        -0.428871        0.786849       0.0269748      0.00551184    -8.99351e-05     6.51643e-05    -0.000151546     8.95831e-05
                      0.0267517      0.00538616        0.490281        0.853238     1.43436e-06    -1.78978e-07     3.16522e-06    -3.21488e-07
                   -9.04022e-05     6.53868e-05     1.11634e-06     1.02688e-07        0.843265        -0.11592     2.05891e-07      1.2343e-07
                   -0.000152565     9.04736e-05     3.40705e-06    -6.17235e-07     5.41335e-08     1.06619e-07        0.840777       -0.114208
     5.796e+07           -0.418        0.793563       0.0269071      0.00522606    -8.94002e-05     6.58959e-05     -0.00014988      9.0565e-05
                      0.0266837      0.00510329        0.494759        0.850593     1.42601e-06    -1.91903e-07     3.15474e-06    -3.48687e-07
                   -8.98802e-05     6.61238e-05     1.11563e-06     9.58344e-08         0.84251       -0.119355     2.04194e-07     1.22713e-07
                   -0.000150888     9.14649e-05     3.37865e-06    -6.43305e-07     5.54833e-08     1.08639e-07        0.840033       -0.117635
     5.798e+07        -0.407105        0.800074       0.0268367      0.00494371    -8.88549e-05     6.66165e-05    -0.000148222      9.1519e-05
                      0.0266131      0.00482383        0.499214        0.847923     1.41745e-06    -2.04558e-07     3.14414e-06    -3.75621e-07
                   -8.93476e-05       6.685e-05     1.11484e-06     8.90943e-08        0.841737        -0.12278     2.02516e-07     1.22093e-07
                    -0.00014922      9.2428e-05     3.35034e-06    -6.68719e-07     5.68824e-08     1.10719e-07        0.839272        -0.12105
       5.8e+07        -0.396189        0.806384       0.0267637      0.00466479    -8.82996e-05     6.73261e-05    -0.000146573     9.24456e-05
                      0.0265399      0.00454778        0.503645        0.845231     1.40869e-06    -2.16943e-07     3.13343e-06    -4.02292e-07
                   -8.88049e-05     6.75654e-05       1.114e-06     8.24673e-08        0.840946       -0.126192     2.00857e-07     1.21568e-07
                   -0.000147559     9.33635e-05     3.32213e-06    -6.93491e-07     5.83331e-08     1.12859e-07        0.838492       -0.124454
     5.802e+07        -0.385256        0.812495       0.0266883      0.00438928    -8.77346e-05     6.80247e-05    -0.000144932     9.33454e-05
                      0.0264642      0.00427511        0.508053        0.842515     1.39976e-06    -2.29058e-07     3.12261e-06    -4.28704e-07
                   -8.82524e-05     6.82701e-05     1.11309e-06     7.59526e-08        0.840137       -0.129593     1.99221e-07     1.21135e-07
                   -0.000145907     9.42719e-05     3.29401e-06    -7.17631e-07     5.98374e-08     1.15054e-07        0.837695       -0.127846
     5.804e+07        -0.374309        0.818411       0.0266104      0.00411716    -8.71605e-05     6.87121e-05    -0.000143299     9.42189e-05
                      0.0263862      0.00400582        0.512436        0.839776     1.39064e-06    -2.40903e-07     3.11168e-06    -4.54859e-07
                   -8.76907e-05     6.89638e-05     1.11213e-06     6.95492e-08        0.839311       -0.132982     1.97608e-07     1.20792e-07
                   -0.000144263     9.51539e-05       3.266e-06    -7.41154e-07     6.13972e-08     1.17305e-07         0.83688       -0.131226
     5.806e+07        -0.363351        0.824132       0.0265301      0.00384842    -8.65775e-05     6.93884e-05    -0.000141675     9.50666e-05
                      0.0263058      0.00373989        0.516796        0.837015     1.38137e-06     -2.5248e-07     3.10064e-06    -4.80759e-07
                     -8.712e-05     6.96467e-05     1.11112e-06     6.32564e-08        0.838467        -0.13636     1.96022e-07     1.20538e-07
                   -0.000142628     9.60099e-05      3.2381e-06    -7.64071e-07     6.30145e-08     1.19607e-07        0.836048       -0.134595
     5.808e+07        -0.352386        0.829663       0.0264476      0.00358304    -8.59861e-05     7.00535e-05     -0.00014006     9.58892e-05
                      0.0262232      0.00347729        0.521132        0.834231     1.37193e-06    -2.63788e-07     3.08949e-06    -5.06407e-07
                   -8.65408e-05     7.03187e-05     1.11007e-06     5.70729e-08        0.837606       -0.139725     1.94463e-07     1.20369e-07
                   -0.000141002     9.68405e-05     3.21032e-06    -7.86394e-07     6.46909e-08     1.21959e-07        0.835198       -0.137951
      5.81e+07        -0.341417        0.835004       0.0263629        0.003321    -8.53866e-05     7.07075e-05    -0.000138453      9.6687e-05
                      0.0261385        0.003218        0.525444        0.831426     1.36235e-06    -2.74828e-07     3.07825e-06    -5.31805e-07
                   -8.59533e-05     7.09797e-05     1.10897e-06     5.09977e-08        0.836728       -0.143078     1.92933e-07     1.20284e-07
                   -0.000139384     9.76462e-05     3.18266e-06    -8.08135e-07      6.6428e-08     1.24358e-07        0.834331       -0.141296
     5.812e+07        -0.330445        0.840159       0.0262761      0.00306228    -8.47794e-05     7.13503e-05    -0.000136856     9.74606e-05
                      0.0260517      0.00296202        0.529731        0.828599     1.35262e-06    -2.85601e-07      3.0669e-06    -5.56956e-07
                    -8.5358e-05     7.16297e-05     1.10784e-06     4.50295e-08        0.835833       -0.146419     1.91435e-07     1.20282e-07
                   -0.000137776     9.84274e-05     3.15512e-06    -8.29306e-07     6.82276e-08     1.26803e-07        0.833448       -0.144629
     5.814e+07        -0.319475         0.84513       0.0261873      0.00280686    -8.41648e-05      7.1982e-05    -0.000135268     9.82106e-05
                      0.0259629      0.00270932        0.533994         0.82575     1.34277e-06    -2.96109e-07     3.05545e-06    -5.81862e-07
                   -8.47553e-05     7.22689e-05     1.10668e-06      3.9167e-08        0.834922       -0.149747     1.89969e-07     1.20359e-07
                   -0.000136177     9.91848e-05     3.12772e-06    -8.49918e-07     7.00909e-08     1.29291e-07        0.832548       -0.147949
     5.816e+07        -0.308509         0.84992       0.0260966      0.00255472    -8.35432e-05     7.26025e-05    -0.000133689     9.89372e-05
                      0.0258722      0.00245987        0.538233         0.82288     1.33279e-06    -3.06353e-07     3.04391e-06    -6.06525e-07
                   -8.41453e-05     7.28971e-05      1.1055e-06     3.34086e-08        0.833994       -0.153063     1.88538e-07     1.20514e-07
                   -0.000134587     9.99187e-05     3.10045e-06    -8.69981e-07     7.20193e-08      1.3182e-07        0.831632       -0.151257
     5.818e+07         -0.29755        0.854531       0.0260039      0.00230583    -8.29149e-05      7.3212e-05     -0.00013212     9.96412e-05
                      0.0257796      0.00221366        0.542446         0.81999     1.32269e-06    -3.16334e-07     3.03227e-06    -6.30948e-07
                   -8.35286e-05     7.35144e-05     1.10428e-06     2.77531e-08         0.83305       -0.156367     1.87143e-07     1.20744e-07
                   -0.000133007      0.00010063     3.07332e-06    -8.89508e-07     7.40142e-08     1.34388e-07        0.830699       -0.154552
      5.82e+07        -0.286599        0.858965       0.0259094      0.00206019    -8.22803e-05     7.38103e-05    -0.000130559     0.000100323
                      0.0256852      0.00197066        0.546636        0.817079     1.31248e-06    -3.26054e-07     3.02054e-06    -6.55132e-07
                   -8.29053e-05     7.41208e-05     1.10305e-06     2.21988e-08        0.832091       -0.159658     1.85784e-07     1.21049e-07
                   -0.000131436     0.000101318     3.04634e-06    -9.08509e-07     7.60766e-08     1.36992e-07        0.829751       -0.157836
     5.822e+07         -0.27566        0.863225       0.0258132      0.00181775    -8.16396e-05     7.43976e-05    -0.000129009     0.000100983
                      0.0255891      0.00173085          0.5508        0.814148     1.30217e-06    -3.35514e-07     3.00872e-06    -6.79081e-07
                   -8.22759e-05     7.47163e-05     1.10181e-06      1.6744e-08        0.831115       -0.162936     1.84464e-07     1.21425e-07
                   -0.000129874     0.000101985      3.0195e-06    -9.26995e-07     7.82077e-08      1.3963e-07        0.828787       -0.161106
     5.824e+07        -0.264736        0.867313       0.0257153      0.00157851    -8.09932e-05     7.49738e-05    -0.000127468     0.000101621
                      0.0254914      0.00149421        0.554939        0.811198     1.29176e-06    -3.44716e-07      2.9968e-06    -7.02795e-07
                   -8.16406e-05      7.5301e-05     1.10055e-06     1.13873e-08        0.830124       -0.166202     1.83184e-07      1.2187e-07
                   -0.000128322      0.00010263     2.99281e-06    -9.44976e-07     8.04085e-08       1.423e-07        0.827807       -0.164364
     5.826e+07        -0.253827        0.871231       0.0256157      0.00134243    -8.03413e-05     7.55391e-05    -0.000125936     0.000102239
                      0.0253921      0.00126072        0.559054        0.808227     1.28127e-06    -3.53662e-07      2.9848e-06    -7.26278e-07
                   -8.09997e-05     7.58749e-05     1.09928e-06     6.12683e-09        0.829118       -0.169455     1.81944e-07     1.22384e-07
                    -0.00012678     0.000103253     2.96628e-06    -9.62462e-07     8.26799e-08        1.45e-07        0.826812       -0.167609
     5.828e+07        -0.242937        0.874983       0.0255147      0.00110949    -7.96842e-05     7.60934e-05    -0.000124414     0.000102835
                      0.0252912      0.00103034        0.563143        0.805237     1.27069e-06    -3.62355e-07     2.97272e-06    -7.49531e-07
                   -8.03535e-05     7.64381e-05       1.098e-06     9.60873e-10        0.828097       -0.172695     1.80747e-07     1.22963e-07
                   -0.000125248     0.000103857     2.93991e-06    -9.79463e-07     8.50228e-08     1.47728e-07        0.825802       -0.170841
      5.83e+07        -0.232067         0.87857       0.0254121     0.000879669    -7.90223e-05     7.66369e-05    -0.000122902     0.000103412
                      0.0251889     0.000803048        0.567208        0.802229     1.26004e-06    -3.70795e-07     2.96055e-06    -7.72555e-07
                   -7.97023e-05     7.69905e-05     1.09673e-06    -4.11235e-09         0.82706       -0.175922     1.79592e-07     1.23606e-07
                   -0.000123725     0.000104439     2.91369e-06     -9.9599e-07     8.74379e-08     1.50481e-07        0.824777       -0.174061
     5.832e+07        -0.221221        0.881994       0.0253081     0.000652938    -7.83558e-05     7.71695e-05      -0.0001214     0.000103969
                      0.0250852      0.00057883        0.571247        0.799201     1.24932e-06    -3.78986e-07      2.9483e-06    -7.95354e-07
                   -7.90463e-05     7.75323e-05     1.09545e-06    -9.09466e-09        0.826009       -0.179136     1.78481e-07      1.2431e-07
                   -0.000122212     0.000105002     2.88764e-06    -1.01205e-06     8.99259e-08     1.53257e-07        0.823737       -0.177268
     5.834e+07        -0.210398        0.885259       0.0252027     0.000429273     -7.7685e-05     7.76913e-05    -0.000119908     0.000104507
                      0.0249801     0.000357653        0.575261        0.796155     1.23853e-06    -3.86929e-07     2.93597e-06    -8.17929e-07
                   -7.83859e-05     7.80635e-05     1.09418e-06    -1.39879e-08        0.824944       -0.182337     1.77415e-07     1.25075e-07
                    -0.00012071     0.000105546     2.86175e-06    -1.02766e-06     9.24875e-08     1.56055e-07        0.822683       -0.180461
     5.836e+07        -0.199603        0.888366        0.025096     0.000208647    -7.70101e-05     7.82025e-05    -0.000118425     0.000105026
                      0.0248737     0.000139494        0.579249        0.793091     1.22769e-06    -3.94627e-07     2.92356e-06    -8.40281e-07
                   -7.77212e-05     7.85842e-05     1.09291e-06     -1.8794e-08        0.823864       -0.185525     1.76394e-07     1.25898e-07
                   -0.000119217      0.00010607     2.83603e-06    -1.04282e-06     9.51233e-08     1.58871e-07        0.821614       -0.183642
     5.838e+07        -0.188835        0.891318        0.024988    -8.96633e-06    -7.63314e-05      7.8703e-05    -0.000116953     0.000105527
                      0.0247661    -7.56758e-05        0.583212         0.79001     1.21679e-06    -4.02082e-07     2.91108e-06    -8.62413e-07
                   -7.70526e-05     7.90943e-05     1.09165e-06    -2.35147e-08         0.82277         -0.1887      1.7542e-07     1.26777e-07
                   -0.000117734     0.000106576     2.81048e-06    -1.05754e-06     9.78337e-08     1.61705e-07        0.820531        -0.18681
      5.84e+07        -0.178098        0.894117       0.0248788    -0.000223592    -7.56491e-05      7.9193e-05     -0.00011549     0.000106009
                      0.0246573    -0.000287881         0.58715         0.78691     1.20585e-06    -4.09296e-07     2.89852e-06    -8.84327e-07
                   -7.63803e-05     7.95941e-05     1.09041e-06    -2.81521e-08        0.821662       -0.191862     1.74493e-07      1.2771e-07
                   -0.000116261     0.000107064     2.78511e-06    -1.07184e-06     1.00619e-07     1.64554e-07        0.819434       -0.189964
     5.842e+07        -0.167393        0.896766       0.0247685    -0.000435258    -7.49634e-05     7.96725e-05    -0.000114038     0.000106474
                      0.0245473     -0.00049715        0.591062        0.783793     1.19487e-06    -4.16273e-07     2.88589e-06    -9.06024e-07
                   -7.57044e-05     8.00835e-05     1.08917e-06    -3.27081e-08         0.82054        -0.19501     1.73614e-07     1.28696e-07
                   -0.000114798     0.000107533      2.7599e-06    -1.08571e-06      1.0348e-07     1.67416e-07        0.818324       -0.193106
     5.844e+07        -0.156721        0.899266        0.024657    -0.000643991    -7.42747e-05     8.01415e-05    -0.000112595     0.000106921
                      0.0244363    -0.000703508        0.594949         0.78066     1.18385e-06    -4.23014e-07     2.87318e-06    -9.27506e-07
                   -7.50253e-05     8.05627e-05     1.08796e-06    -3.71846e-08        0.819405       -0.198145     1.72784e-07     1.29733e-07
                   -0.000113345     0.000107985     2.73488e-06    -1.09918e-06     1.06417e-07     1.70288e-07        0.817199       -0.196234
     5.846e+07        -0.146084         0.90162       0.0245445    -0.000849818    -7.35831e-05     8.06002e-05    -0.000111162     0.000107351
                      0.0243242    -0.000906983         0.59881        0.777509      1.1728e-06    -4.29523e-07     2.86041e-06    -9.48775e-07
                   -7.43432e-05     8.10316e-05     1.08676e-06    -4.15835e-08        0.818256       -0.201267     1.72003e-07     1.30818e-07
                   -0.000111902      0.00010842     2.71003e-06    -1.11224e-06     1.09429e-07      1.7317e-07        0.816062       -0.199349
     5.848e+07        -0.135484        0.903831        0.024431     -0.00105277    -7.28889e-05     8.10487e-05     -0.00010974     0.000107765
                      0.0242112      -0.0011076        0.602646        0.774342     1.16172e-06    -4.35801e-07     2.84757e-06    -9.69833e-07
                   -7.36583e-05     8.14904e-05     1.08558e-06    -4.59069e-08        0.817094       -0.204375     1.71272e-07     1.31951e-07
                   -0.000110469     0.000108838     2.68536e-06    -1.12491e-06     1.12518e-07     1.76059e-07        0.814911        -0.20245
      5.85e+07        -0.124922          0.9059       0.0243165     -0.00125286    -7.21921e-05      8.1487e-05    -0.000108327     0.000108162
                      0.0240972     -0.00130539        0.606456        0.771159     1.15062e-06    -4.41851e-07     2.83466e-06    -9.90681e-07
                   -7.29708e-05     8.19392e-05     1.08442e-06    -5.01567e-08         0.81592        -0.20747     1.70591e-07     1.33129e-07
                   -0.000109046      0.00010924     2.66087e-06     -1.1372e-06     1.15684e-07     1.78953e-07        0.813747       -0.205538
     5.852e+07        -0.114399        0.907829       0.0242011     -0.00145013    -7.14932e-05     8.19152e-05    -0.000106924     0.000108543
                      0.0239823     -0.00150038         0.61024         0.76796     1.13951e-06    -4.47677e-07     2.82168e-06    -1.01132e-06
                   -7.22809e-05      8.2378e-05     1.08328e-06    -5.43349e-08        0.814732       -0.210552      1.6996e-07     1.34351e-07
                   -0.000107634     0.000109626     2.63656e-06    -1.14911e-06     1.18925e-07      1.8185e-07         0.81257       -0.208613
     5.854e+07        -0.103917        0.909621       0.0240848     -0.00164461    -7.07922e-05     8.23334e-05    -0.000105532     0.000108909
                      0.0238666      -0.0016926        0.613999        0.764745     1.12838e-06    -4.53281e-07     2.80865e-06    -1.03175e-06
                   -7.15887e-05     8.28069e-05     1.08217e-06    -5.84435e-08        0.813531        -0.21362     1.69381e-07     1.35615e-07
                   -0.000106231     0.000109995     2.61243e-06    -1.16065e-06     1.22244e-07     1.84748e-07        0.811381       -0.211675
     5.856e+07       -0.0934768        0.911279       0.0239677     -0.00183632    -7.00894e-05     8.27416e-05    -0.000104149     0.000109259
                        0.02375     -0.00188207        0.617731        0.761515     1.11724e-06    -4.58665e-07     2.79555e-06    -1.05198e-06
                   -7.08946e-05     8.32261e-05     1.08109e-06    -6.24844e-08        0.812318       -0.216674     1.68854e-07      1.3692e-07
                   -0.000104839      0.00011035     2.58849e-06    -1.17183e-06     1.25638e-07     1.87646e-07        0.810179       -0.214723
     5.858e+07       -0.0830799        0.912803       0.0238498     -0.00202528    -6.93849e-05     8.31401e-05    -0.000102777     0.000109594
                      0.0236327     -0.00206882        0.621438         0.75827      1.1061e-06    -4.63832e-07     2.78239e-06    -1.07201e-06
                   -7.01987e-05     8.36355e-05     1.08004e-06    -6.64596e-08        0.811093       -0.219715     1.68378e-07     1.38263e-07
                   -0.000103456     0.000110689     2.56474e-06    -1.18265e-06      1.2911e-07     1.90541e-07        0.808964       -0.217758
      5.86e+07       -0.0727275        0.914197       0.0237312     -0.00221154     -6.8679e-05     8.35288e-05    -0.000101414     0.000109915
                      0.0235146     -0.00225288         0.62512         0.75501     1.09496e-06    -4.68786e-07     2.76917e-06    -1.09183e-06
                   -6.95011e-05     8.40353e-05     1.07901e-06     -7.0371e-08        0.809856       -0.222743     1.67955e-07     1.39644e-07
                   -0.000102084     0.000111013     2.54116e-06    -1.19313e-06     1.32657e-07     1.93432e-07        0.807738       -0.220779
     5.862e+07       -0.0624205        0.915462       0.0236119     -0.00239511    -6.79717e-05     8.39079e-05    -0.000100062     0.000110221
                      0.0233959     -0.00243428        0.628775        0.751735     1.08382e-06    -4.73528e-07     2.75589e-06    -1.11145e-06
                   -6.88021e-05     8.44256e-05     1.07802e-06    -7.42207e-08        0.808607       -0.225757     1.67584e-07      1.4106e-07
                   -0.000100722     0.000111323     2.51778e-06    -1.20328e-06     1.36281e-07     1.96317e-07        0.806499       -0.223786
     5.864e+07       -0.0521602        0.916601       0.0234919     -0.00257602    -6.72634e-05     8.42775e-05     -9.8719e-05     0.000110513
                      0.0232765     -0.00261304        0.632405        0.748446     1.07269e-06    -4.78063e-07     2.74255e-06    -1.13088e-06
                   -6.81018e-05     8.48064e-05     1.07706e-06    -7.80106e-08        0.807345       -0.228757     1.67266e-07      1.4251e-07
                   -9.93696e-05     0.000111618     2.49458e-06    -1.21309e-06     1.39981e-07     1.99195e-07        0.805249       -0.226781
     5.866e+07       -0.0419476        0.917615       0.0233712      -0.0027543     -6.6554e-05     8.46376e-05    -9.73864e-05     0.000110791
                      0.0231565      -0.0027892        0.636009        0.745143     1.06157e-06    -4.82392e-07     2.72917e-06     -1.1501e-06
                   -6.74004e-05     8.51779e-05     1.07614e-06    -8.17426e-08        0.806073       -0.231744     1.67001e-07     1.43992e-07
                   -9.80274e-05       0.0001119     2.47158e-06    -1.22257e-06     1.43757e-07     2.02063e-07        0.803987       -0.229761
     5.868e+07       -0.0317835        0.918507         0.02325     -0.00292998    -6.58439e-05     8.49883e-05    -9.60637e-05     0.000111055
                       0.023036     -0.00296278        0.639587        0.741826     1.05046e-06    -4.86518e-07     2.71572e-06    -1.16914e-06
                   -6.66981e-05     8.55401e-05     1.07525e-06    -8.54186e-08        0.804788       -0.234717     1.66789e-07     1.45505e-07
                   -9.66953e-05     0.000112167     2.44875e-06    -1.23174e-06     1.47608e-07      2.0492e-07        0.802713       -0.232728
      5.87e+07       -0.0216691        0.919278       0.0231282     -0.00310308    -6.51331e-05     8.53298e-05    -9.47509e-05     0.000111307
                      0.0229149      -0.0031338        0.643139        0.738495     1.03937e-06    -4.90445e-07     2.70223e-06    -1.18797e-06
                   -6.59949e-05     8.58932e-05      1.0744e-06    -8.90406e-08        0.803493       -0.237677     1.66631e-07     1.47048e-07
                   -9.53731e-05     0.000112422     2.42612e-06     -1.2406e-06     1.51535e-07     2.07765e-07        0.801429       -0.235682
     5.872e+07        -0.011605        0.919931       0.0230059     -0.00327364    -6.44219e-05     8.56621e-05    -9.34481e-05     0.000111545
                      0.0227932      -0.0033023        0.646666        0.735152      1.0283e-06    -4.94174e-07     2.68868e-06    -1.20662e-06
                   -6.52911e-05     8.62372e-05     1.07358e-06    -9.26104e-08        0.802186       -0.240622     1.66526e-07     1.48619e-07
                   -9.40609e-05     0.000112663     2.40368e-06    -1.24915e-06     1.55537e-07     2.10595e-07        0.800133       -0.238622
     5.874e+07      -0.00159235        0.920468       0.0228831     -0.00344168    -6.37103e-05     8.59854e-05    -9.21551e-05     0.000111771
                      0.0226712     -0.00346831        0.650167        0.731795     1.01726e-06     -4.9771e-07     2.67509e-06    -1.22507e-06
                   -6.45868e-05     8.65722e-05     1.07281e-06      -9.613e-08        0.800869       -0.243555     1.66474e-07     1.50216e-07
                   -9.27586e-05     0.000112892     2.38143e-06    -1.25741e-06     1.59613e-07     2.13409e-07        0.798826       -0.241548
     5.876e+07       0.00836821         0.92089       0.0227599     -0.00360723    -6.29985e-05     8.62997e-05    -9.08719e-05     0.000111984
                      0.0225486     -0.00363184        0.653641        0.728425     1.00624e-06    -5.01055e-07     2.66145e-06    -1.24333e-06
                   -6.38822e-05     8.68984e-05     1.07207e-06    -9.96012e-08         0.79954       -0.246473     1.66476e-07     1.51839e-07
                   -9.14663e-05     0.000113108     2.35936e-06    -1.26537e-06     1.63764e-07     2.16206e-07        0.797508       -0.244461
     5.878e+07        0.0182759        0.921199       0.0226362     -0.00377031    -6.22867e-05     8.66051e-05    -8.95986e-05     0.000112185
                      0.0224257     -0.00379293         0.65709        0.725043     9.95248e-07    -5.04211e-07     2.64776e-06    -1.26141e-06
                   -6.31773e-05     8.72157e-05     1.07137e-06    -1.03026e-07        0.798201       -0.249378     1.66532e-07     1.53485e-07
                   -9.01838e-05     0.000113312     2.33749e-06    -1.27305e-06     1.67989e-07     2.18984e-07        0.796179        -0.24736
      5.88e+07        0.0281299        0.921399       0.0225122     -0.00393096    -6.15749e-05     8.69018e-05     -8.8335e-05     0.000112374
                      0.0223024     -0.00395161        0.660514        0.721649     9.84291e-07    -5.07182e-07     2.63403e-06     -1.2793e-06
                   -6.24724e-05     8.75244e-05     1.07071e-06    -1.06406e-07        0.796852       -0.252269     1.66642e-07     1.55153e-07
                   -8.89112e-05     0.000113504      2.3158e-06    -1.28046e-06     1.72287e-07     2.21741e-07         0.79484       -0.250246
     5.882e+07        0.0379296        0.921489       0.0223878      -0.0040892    -6.08633e-05     8.71898e-05    -8.70812e-05     0.000112552
                      0.0221787      -0.0041079        0.663911        0.718242     9.73369e-07     -5.0997e-07     2.62025e-06      -1.297e-06
                   -6.17675e-05     8.78245e-05      1.0701e-06    -1.09743e-07        0.795492       -0.255147     1.66805e-07     1.56842e-07
                   -8.76484e-05     0.000113684      2.2943e-06    -1.28759e-06     1.76657e-07     2.24476e-07        0.793491       -0.253118
     5.884e+07        0.0476742        0.921472        0.022263     -0.00424505    -6.01521e-05     8.74692e-05     -8.5837e-05     0.000112718
                      0.0220548     -0.00426183        0.667283        0.714824     9.62484e-07    -5.12579e-07     2.60643e-06    -1.31452e-06
                   -6.10627e-05      8.8116e-05     1.06953e-06    -1.13039e-07        0.794122        -0.25801     1.67021e-07     1.58551e-07
                   -8.63954e-05     0.000113852       2.273e-06    -1.29445e-06     1.81101e-07     2.27188e-07        0.792131       -0.255976
     5.886e+07        0.0573633        0.921351        0.022138     -0.00439855    -5.94413e-05     8.77402e-05    -8.46026e-05     0.000112873
                      0.0219305     -0.00441342        0.670629        0.711394     9.51639e-07     -5.1501e-07     2.59256e-06    -1.33185e-06
                   -6.03583e-05     8.83992e-05       1.069e-06    -1.16295e-07        0.792741       -0.260861     1.67292e-07     1.60278e-07
                   -8.51521e-05     0.000114009     2.25188e-06    -1.30106e-06     1.85616e-07     2.29875e-07        0.790762       -0.258821
     5.888e+07        0.0669961        0.921126       0.0220126     -0.00454973     -5.8731e-05     8.80028e-05    -8.33778e-05     0.000113016
                       0.021806     -0.00456271        0.673949        0.707953     9.40837e-07    -5.17267e-07     2.57866e-06      -1.349e-06
                   -5.96543e-05     8.86741e-05     1.06851e-06    -1.19514e-07        0.791351       -0.263697     1.67615e-07     1.62022e-07
                   -8.39185e-05     0.000114155     2.23095e-06    -1.30741e-06     1.90203e-07     2.32536e-07        0.789382       -0.261652
      5.89e+07        0.0765722          0.9208       0.0218871      -0.0046986    -5.80215e-05     8.82571e-05    -8.21625e-05      0.00011315
                      0.0216812     -0.00470972        0.677243          0.7045     9.30079e-07    -5.19353e-07     2.56472e-06    -1.36598e-06
                   -5.89508e-05     8.89408e-05     1.06807e-06    -1.22697e-07        0.789952        -0.26652     1.67992e-07     1.63782e-07
                   -8.26946e-05     0.000114291     2.21021e-06    -1.31351e-06      1.9486e-07     2.35169e-07        0.787993       -0.264469
     5.892e+07        0.0860909        0.920375       0.0217613     -0.00484519    -5.73127e-05     8.85033e-05    -8.09568e-05     0.000113272
                      0.0215563     -0.00485447        0.680512        0.701037     9.19368e-07    -5.21271e-07     2.55074e-06    -1.38277e-06
                   -5.82479e-05     8.91993e-05     1.06767e-06    -1.25846e-07        0.788542       -0.269329     1.68422e-07     1.65557e-07
                   -8.14803e-05     0.000114415     2.18965e-06    -1.31937e-06     1.99587e-07     2.37774e-07        0.786594       -0.267273
     5.894e+07        0.0955518        0.919851       0.0216353     -0.00498954    -5.66049e-05     8.87414e-05    -7.97607e-05     0.000113385
                      0.0214311       -0.004997        0.683755        0.697563     9.08706e-07    -5.23022e-07     2.53672e-06    -1.39938e-06
                   -5.75458e-05     8.94499e-05     1.06732e-06    -1.28963e-07        0.787124       -0.272124     1.68906e-07     1.67344e-07
                   -8.02756e-05      0.00011453     2.16929e-06    -1.32499e-06     2.04384e-07     2.40348e-07        0.785186       -0.270063
     5.896e+07         0.104954        0.919231       0.0215091     -0.00513166     -5.5898e-05     8.89715e-05    -7.85739e-05     0.000113487
                      0.0213058     -0.00513732        0.686973        0.694079     8.98094e-07    -5.24611e-07     2.52267e-06    -1.41582e-06
                   -5.68445e-05     8.96925e-05     1.06701e-06    -1.32048e-07        0.785696       -0.274906     1.69442e-07     1.69144e-07
                   -7.90804e-05     0.000114634     2.14911e-06    -1.33038e-06      2.0925e-07     2.42891e-07        0.783768        -0.27284
     5.898e+07         0.114298        0.918517       0.0213828     -0.00527159    -5.51922e-05     8.91937e-05    -7.73966e-05     0.000113579
                      0.0211803     -0.00527547        0.690165        0.690585     8.87536e-07    -5.26039e-07     2.50858e-06    -1.43209e-06
                   -5.61442e-05     8.99273e-05     1.06674e-06    -1.35105e-07        0.784259       -0.277674     1.70031e-07     1.70955e-07
                   -7.78947e-05     0.000114728     2.12912e-06    -1.33554e-06     2.14185e-07     2.45401e-07        0.782341       -0.275603
       5.9e+07         0.123583        0.917711       0.0212563     -0.00540934    -5.44876e-05     8.94082e-05    -7.62287e-05     0.000113662
                      0.0210548     -0.00541147        0.693331        0.687081     8.77032e-07    -5.27309e-07     2.49446e-06    -1.44818e-06
                   -5.54449e-05     9.01544e-05     1.06653e-06    -1.38133e-07        0.782812       -0.280428     1.70672e-07     1.72775e-07
                   -7.67184e-05     0.000114812     2.10932e-06    -1.34048e-06     2.19186e-07     2.47877e-07        0.780905       -0.278352
     5.902e+07         0.132808        0.916813       0.0211298     -0.00554496    -5.37843e-05      8.9615e-05    -7.50701e-05     0.000113735
                      0.0209291     -0.00554534        0.696472        0.683567     8.66584e-07    -5.28425e-07     2.48031e-06    -1.46409e-06
                   -5.47467e-05     9.03738e-05     1.06635e-06    -1.41136e-07        0.781357       -0.283169     1.71366e-07     1.74604e-07
                   -7.55516e-05     0.000114887      2.0897e-06     -1.3452e-06     2.24255e-07     2.50318e-07         0.77946       -0.281088
     5.904e+07         0.141974        0.915826       0.0210032     -0.00567845    -5.30824e-05     8.98143e-05    -7.39208e-05     0.000113799
                      0.0208034     -0.00567711        0.699587        0.680043     8.56195e-07    -5.29389e-07     2.46612e-06    -1.47984e-06
                   -5.40498e-05     9.05858e-05     1.06623e-06    -1.44115e-07        0.779894       -0.285896     1.72112e-07      1.7644e-07
                   -7.43941e-05     0.000114953     2.07026e-06    -1.34971e-06      2.2939e-07     2.52723e-07        0.778007        -0.28381
     5.906e+07         0.151079        0.914751       0.0208765     -0.00580985    -5.23819e-05      9.0006e-05    -7.27807e-05     0.000113854
                      0.0206776     -0.00580681        0.702677         0.67651     8.45865e-07    -5.30202e-07     2.45191e-06    -1.49541e-06
                   -5.33542e-05     9.07902e-05     1.06615e-06     -1.4707e-07        0.778421        -0.28861      1.7291e-07     1.78283e-07
                   -7.32459e-05     0.000115009     2.05101e-06    -1.35401e-06      2.3459e-07      2.5509e-07        0.776545       -0.286519
     5.908e+07         0.160124        0.913589       0.0207498     -0.00593917     -5.1683e-05     9.01904e-05    -7.16497e-05     0.000113901
                      0.0205518     -0.00593447        0.705741        0.672969     8.35597e-07     -5.3087e-07     2.43767e-06    -1.51082e-06
                   -5.26599e-05     9.09874e-05     1.06611e-06    -1.50004e-07         0.77694        -0.29131     1.73759e-07     1.80131e-07
                    -7.2107e-05     0.000115057     2.03195e-06    -1.35811e-06     2.39855e-07     2.57419e-07        0.775074       -0.289214
      5.91e+07         0.169107        0.912344        0.020623     -0.00606646    -5.09857e-05     9.03675e-05    -7.05279e-05     0.000113938
                       0.020426     -0.00606009         0.70878        0.669418     8.25391e-07    -5.31392e-07      2.4234e-06    -1.52605e-06
                   -5.19672e-05     9.11773e-05     1.06612e-06    -1.52918e-07        0.775451       -0.293996     1.74659e-07     1.81983e-07
                   -7.09772e-05     0.000115096     2.01307e-06    -1.36201e-06     2.45184e-07     2.59709e-07        0.773595       -0.291895
     5.912e+07          0.17803        0.911015       0.0204963     -0.00619173    -5.02901e-05     9.05374e-05    -6.94152e-05     0.000113967
                      0.0203001     -0.00618372        0.711793        0.665859     8.15249e-07    -5.31773e-07      2.4091e-06    -1.54112e-06
                    -5.1276e-05       9.136e-05     1.06618e-06    -1.55814e-07        0.773954       -0.296669     1.75611e-07     1.83839e-07
                   -6.98566e-05     0.000115126     1.99437e-06    -1.36572e-06     2.50576e-07     2.61958e-07        0.772108       -0.294563
     5.914e+07         0.186892        0.909604       0.0203696       -0.006315    -4.95962e-05     9.07002e-05    -6.83115e-05     0.000113988
                      0.0201744     -0.00630538        0.714782        0.662291     8.05173e-07    -5.32015e-07     2.39477e-06    -1.55603e-06
                   -5.05864e-05     9.15356e-05     1.06629e-06    -1.58693e-07        0.772449       -0.299328     1.76613e-07     1.85697e-07
                   -6.87452e-05     0.000115148     1.97585e-06    -1.36924e-06     2.56031e-07     2.64165e-07        0.770613       -0.297218
     5.916e+07         0.195692        0.908114       0.0202429      -0.0064363    -4.89042e-05     9.08559e-05    -6.72168e-05        0.000114
                      0.0200486     -0.00642508        0.717745        0.658715     7.95164e-07    -5.32121e-07     2.38043e-06    -1.57077e-06
                   -4.98985e-05     9.17043e-05     1.06644e-06    -1.61556e-07        0.770935       -0.301973     1.77666e-07     1.87556e-07
                   -6.76427e-05     0.000115162     1.95751e-06    -1.37257e-06     2.61547e-07      2.6633e-07        0.769109       -0.299859
     5.918e+07          0.20443        0.906545       0.0201163     -0.00655565    -4.82142e-05     9.10048e-05     -6.6131e-05     0.000114005
                       0.019923     -0.00654285        0.720683        0.655131     7.85223e-07    -5.32092e-07     2.36605e-06    -1.58534e-06
                   -4.92124e-05     9.18662e-05     1.06663e-06    -1.64405e-07        0.769414       -0.304605     1.78768e-07     1.89415e-07
                   -6.65493e-05     0.000115167     1.93935e-06    -1.37573e-06     2.67124e-07     2.68451e-07        0.767598       -0.302487
      5.92e+07         0.213106        0.904899       0.0199897     -0.00667309    -4.75261e-05     9.11469e-05     -6.5054e-05     0.000114002
                      0.0197974     -0.00665873        0.723595         0.65154     7.75351e-07    -5.31932e-07     2.35166e-06    -1.59976e-06
                   -4.85282e-05     9.20212e-05     1.06687e-06    -1.67241e-07        0.767886       -0.307224     1.79921e-07     1.91274e-07
                   -6.54647e-05     0.000115165     1.92137e-06    -1.37871e-06     2.72761e-07     2.70528e-07         0.76608       -0.305101
     5.922e+07          0.22172        0.903178       0.0198633     -0.00678862      -4.684e-05     9.12823e-05    -6.39859e-05     0.000113991
                      0.0196719     -0.00677272        0.726483         0.64794     7.65549e-07    -5.31643e-07     2.33724e-06    -1.61401e-06
                   -4.78458e-05     9.21695e-05     1.06716e-06    -1.70065e-07        0.766349       -0.309829     1.81122e-07     1.93131e-07
                   -6.43891e-05     0.000115155     1.90357e-06    -1.38151e-06     2.78457e-07     2.72559e-07        0.764553       -0.307701
     5.924e+07         0.230273        0.901382       0.0197369     -0.00690228     -4.6156e-05      9.1411e-05    -6.29265e-05     0.000113973
                      0.0195465     -0.00688486        0.729345        0.644334     7.55818e-07    -5.31227e-07     2.32281e-06     -1.6281e-06
                   -4.71654e-05     9.23112e-05     1.06749e-06    -1.72879e-07        0.764806       -0.312421     1.82373e-07     1.94986e-07
                   -6.33223e-05     0.000115138     1.88595e-06    -1.38415e-06     2.84211e-07     2.74544e-07         0.76302       -0.310289
     5.926e+07         0.238762        0.899514       0.0196107     -0.00701408    -4.54743e-05     9.15332e-05    -6.18759e-05     0.000113947
                      0.0194212     -0.00699516        0.732183         0.64072      7.4616e-07    -5.30687e-07     2.30835e-06    -1.64203e-06
                    -4.6487e-05     9.24464e-05     1.06787e-06    -1.75685e-07        0.763255       -0.314999     1.83672e-07     1.96837e-07
                   -6.22643e-05     0.000115113      1.8685e-06    -1.38662e-06     2.90023e-07     2.76482e-07        0.761479       -0.312862
     5.928e+07          0.24719        0.897574       0.0194846     -0.00712406    -4.47947e-05     9.16489e-05    -6.08339e-05     0.000113914
                      0.0192961     -0.00710366        0.734995          0.6371     7.36575e-07    -5.30025e-07     2.29387e-06    -1.65581e-06
                   -4.58107e-05     9.25752e-05     1.06829e-06    -1.78482e-07        0.761697       -0.317563      1.8502e-07     1.98684e-07
                    -6.1215e-05     0.000115081     1.85123e-06    -1.38894e-06     2.95891e-07     2.78372e-07         0.75993       -0.315423
      5.93e+07         0.255554        0.895564       0.0193586     -0.00723224    -4.41174e-05     9.17583e-05    -5.98004e-05     0.000113875
                      0.0191712     -0.00721036        0.737783        0.633472     7.27064e-07    -5.29244e-07     2.27938e-06    -1.66943e-06
                   -4.51366e-05     9.26976e-05     1.06876e-06    -1.81273e-07        0.760132       -0.320115     1.86415e-07     2.00526e-07
                   -6.01744e-05     0.000115042     1.83413e-06     -1.3911e-06     3.01815e-07     2.80214e-07        0.758375        -0.31797
     5.932e+07         0.263857        0.893486       0.0192328     -0.00733862    -4.34424e-05     9.18614e-05    -5.87755e-05     0.000113828
                      0.0190464     -0.00731531        0.740546        0.629838     7.17628e-07    -5.28346e-07     2.26487e-06    -1.68289e-06
                   -4.44646e-05     9.28138e-05     1.06927e-06    -1.84059e-07         0.75856       -0.322653     1.87858e-07     2.02361e-07
                   -5.91424e-05     0.000114996     1.81721e-06     -1.3931e-06     3.07795e-07     2.82005e-07        0.756813       -0.320504
     5.934e+07         0.272096        0.891341       0.0191072     -0.00744325    -4.27698e-05     9.19584e-05    -5.77591e-05     0.000113775
                      0.0189218     -0.00741851        0.743284        0.626198     7.08268e-07    -5.27333e-07     2.25034e-06     -1.6962e-06
                   -4.37949e-05     9.29238e-05     1.06983e-06    -1.86841e-07        0.756981       -0.325177     1.89348e-07      2.0419e-07
                   -5.81189e-05     0.000114943     1.80046e-06    -1.39496e-06     3.13828e-07     2.83747e-07        0.755244       -0.323024
     5.936e+07         0.280273        0.889129       0.0189818     -0.00754614    -4.20997e-05     9.20492e-05    -5.67512e-05     0.000113715
                      0.0187974     -0.00751999        0.745997        0.622551     6.98984e-07    -5.26208e-07      2.2358e-06    -1.70935e-06
                   -4.31275e-05     9.30277e-05     1.07043e-06    -1.89619e-07        0.755395       -0.327689     1.90884e-07     2.06012e-07
                   -5.71039e-05     0.000114884     1.78387e-06    -1.39667e-06     3.19914e-07     2.85437e-07        0.753668       -0.325531
     5.938e+07         0.288387        0.886853       0.0188566     -0.00764731     -4.1432e-05     9.21341e-05    -5.57516e-05     0.000113649
                      0.0186732     -0.00761977        0.748685        0.618899     6.89777e-07    -5.24972e-07     2.22124e-06    -1.72235e-06
                   -4.24624e-05     9.31256e-05     1.07107e-06    -1.92396e-07        0.753803       -0.330186     1.92467e-07     2.07825e-07
                   -5.60974e-05     0.000114818     1.76746e-06    -1.39824e-06     3.26053e-07     2.87075e-07        0.752086       -0.328025
      5.94e+07         0.296439        0.884513       0.0187316     -0.00774679    -4.07668e-05      9.2213e-05    -5.47603e-05     0.000113576
                      0.0185492     -0.00771787        0.751349        0.615241     6.80648e-07    -5.23629e-07     2.20667e-06     -1.7352e-06
                   -4.17997e-05     9.32177e-05     1.07176e-06    -1.95172e-07        0.752205       -0.332671     1.94095e-07     2.09629e-07
                   -5.50992e-05     0.000114746     1.75122e-06    -1.39967e-06     3.32243e-07     2.88661e-07        0.750497       -0.330506
     5.942e+07         0.304428        0.882111       0.0186068      -0.0078446    -4.01042e-05     9.22861e-05    -5.37772e-05     0.000113497
                      0.0184255     -0.00781432        0.753989        0.611577     6.71597e-07     -5.2218e-07     2.19209e-06     -1.7479e-06
                   -4.11394e-05     9.33038e-05     1.07249e-06    -1.97949e-07          0.7506       -0.335143     1.95769e-07     2.11423e-07
                   -5.41094e-05     0.000114667     1.73515e-06    -1.40097e-06     3.38484e-07     2.90194e-07        0.748902       -0.332973
     5.944e+07         0.312354        0.879648       0.0184823     -0.00794075    -3.94442e-05     9.23534e-05    -5.28024e-05     0.000113413
                       0.018302     -0.00790913        0.756604        0.607908     6.62626e-07    -5.20627e-07     2.17749e-06    -1.76045e-06
                   -4.04817e-05     9.33843e-05     1.07326e-06    -2.00727e-07        0.748988       -0.337601     1.97488e-07     2.13206e-07
                   -5.31279e-05     0.000114583     1.71924e-06    -1.40213e-06     3.44774e-07     2.91673e-07          0.7473       -0.335428
     5.946e+07         0.320217        0.877126        0.018358     -0.00803527    -3.87868e-05     9.24151e-05    -5.18357e-05     0.000113322
                      0.0181787     -0.00800233        0.759195        0.604233     6.53733e-07    -5.18974e-07     2.16289e-06    -1.77285e-06
                   -3.98264e-05     9.34591e-05     1.07408e-06    -2.03507e-07        0.747371       -0.340046     1.99251e-07     2.14979e-07
                   -5.21546e-05     0.000114493      1.7035e-06    -1.40317e-06     3.51113e-07     2.93098e-07        0.745692       -0.337869
     5.948e+07         0.328018        0.874545        0.018234     -0.00812818    -3.81322e-05     9.24712e-05    -5.08771e-05     0.000113226
                      0.0180557     -0.00809394        0.761761        0.600553     6.44921e-07    -5.17221e-07     2.14827e-06    -1.78511e-06
                   -3.91736e-05     9.35283e-05     1.07493e-06    -2.06291e-07        0.745748       -0.342477     2.01058e-07     2.16739e-07
                   -5.11894e-05     0.000114397     1.68793e-06    -1.40408e-06       3.575e-07     2.94467e-07        0.744079       -0.340297
      5.95e+07         0.335757        0.871907       0.0181103      -0.0082195    -3.74802e-05     9.25218e-05    -4.99265e-05     0.000113124
                       0.017933     -0.00818397        0.764303        0.596869     6.36189e-07    -5.15371e-07     2.13365e-06    -1.79722e-06
                   -3.85235e-05     9.35919e-05     1.07583e-06    -2.09079e-07        0.744119       -0.344896     2.02909e-07     2.18486e-07
                   -5.02323e-05     0.000114295     1.67251e-06    -1.40487e-06     3.63934e-07     2.95781e-07        0.742459       -0.342712
     5.952e+07         0.343432        0.869212       0.0179868     -0.00830925    -3.68309e-05      9.2567e-05    -4.89839e-05     0.000113017
                      0.0178106     -0.00827245        0.766821         0.59318     6.27538e-07    -5.13426e-07     2.11901e-06    -1.80918e-06
                    -3.7876e-05     9.36502e-05     1.07677e-06    -2.11873e-07        0.742484       -0.347302     2.04803e-07      2.2022e-07
                   -4.92833e-05     0.000114188     1.65726e-06    -1.40554e-06     3.70414e-07     2.97039e-07        0.740834       -0.345114
     5.954e+07         0.351046        0.866463       0.0178636     -0.00839745    -3.61845e-05     9.26068e-05    -4.80492e-05     0.000112904
                      0.0176885      -0.0083594        0.769314        0.589486     6.18967e-07    -5.11388e-07     2.10437e-06      -1.821e-06
                   -3.72311e-05     9.37031e-05     1.07775e-06    -2.14673e-07        0.740843       -0.349694      2.0674e-07      2.2194e-07
                   -4.83422e-05     0.000114075     1.64217e-06     -1.4061e-06     3.76939e-07      2.9824e-07        0.739203       -0.347503
     5.956e+07         0.358597         0.86366       0.0177408     -0.00848413    -3.55409e-05     9.26414e-05    -4.71224e-05     0.000112786
                      0.0175667     -0.00844484        0.771784        0.585788     6.10479e-07    -5.09259e-07     2.08972e-06    -1.83267e-06
                   -3.65889e-05     9.37508e-05     1.07876e-06     -2.1748e-07        0.739197       -0.352074     2.08718e-07     2.23646e-07
                   -4.74091e-05     0.000113957     1.62725e-06    -1.40654e-06     3.83509e-07     2.99384e-07        0.737566       -0.349879
     5.958e+07         0.366086        0.860804       0.0176182     -0.00856929    -3.49001e-05     9.26708e-05    -4.62033e-05     0.000112663
                      0.0174452     -0.00852879         0.77423        0.582086     6.02072e-07    -5.07041e-07     2.07507e-06     -1.8442e-06
                   -3.59495e-05     9.37933e-05     1.07982e-06    -2.20296e-07        0.737545        -0.35444     2.10739e-07     2.25336e-07
                   -4.64839e-05     0.000113834     1.61248e-06    -1.40687e-06     3.90121e-07      3.0047e-07        0.735924       -0.352241
      5.96e+07         0.373512        0.857896        0.017496     -0.00865296    -3.42621e-05     9.26951e-05    -4.52921e-05     0.000112534
                       0.017324     -0.00861126        0.776651         0.57838     5.93747e-07    -5.04736e-07     2.06041e-06    -1.85559e-06
                   -3.53128e-05     9.38306e-05     1.08092e-06     -2.2312e-07        0.735888       -0.356793       2.128e-07      2.2701e-07
                   -4.55664e-05     0.000113706     1.59786e-06    -1.40709e-06     3.96776e-07     3.01497e-07        0.734276       -0.354591
     5.962e+07         0.380877        0.854938       0.0173741     -0.00873517    -3.36271e-05     9.27144e-05    -4.43885e-05     0.000112401
                      0.0172032     -0.00869227        0.779049         0.57467     5.85504e-07    -5.02346e-07     2.04575e-06    -1.86684e-06
                   -3.46788e-05     9.38629e-05     1.08205e-06    -2.25954e-07        0.734226       -0.359134     2.14903e-07     2.28668e-07
                   -4.46567e-05     0.000113573     1.58341e-06    -1.40721e-06     4.03473e-07     3.02466e-07        0.732623       -0.356928
     5.964e+07          0.38818         0.85193       0.0172525     -0.00881592     -3.2995e-05     9.27287e-05    -4.34925e-05     0.000112263
                      0.0170827     -0.00877186        0.781423        0.570956     5.77344e-07    -4.99874e-07     2.03108e-06    -1.87795e-06
                   -3.40477e-05     9.38903e-05     1.08323e-06    -2.28799e-07        0.732559       -0.361462     2.17046e-07     2.30309e-07
                   -4.37548e-05     0.000113435     1.56911e-06    -1.40723e-06     4.10211e-07     3.03376e-07        0.730965       -0.359253
     5.966e+07         0.395421        0.848874       0.0171313     -0.00889524    -3.23658e-05     9.27382e-05    -4.26041e-05     0.000112121
                      0.0169625     -0.00885002        0.783774        0.567239     5.69266e-07     -4.9732e-07     2.01641e-06    -1.88892e-06
                   -3.34194e-05     9.39128e-05     1.08444e-06    -2.31655e-07        0.730886       -0.363776     2.19228e-07     2.31932e-07
                   -4.28604e-05     0.000113292     1.55496e-06    -1.40715e-06     4.16988e-07     3.04227e-07        0.729302       -0.361564
     5.968e+07           0.4026         0.84577       0.0170104     -0.00897314    -3.17396e-05     9.27428e-05    -4.17233e-05     0.000111974
                      0.0168427     -0.00892679        0.786101        0.563519     5.61271e-07    -4.94686e-07     2.00174e-06    -1.89975e-06
                   -3.27939e-05     9.39304e-05     1.08568e-06    -2.34524e-07        0.729209       -0.366078      2.2145e-07     2.33537e-07
                   -4.19737e-05     0.000113144     1.54097e-06    -1.40697e-06     4.23804e-07     3.05017e-07        0.727634       -0.363862
      5.97e+07         0.409718         0.84262       0.0168899     -0.00904965    -3.11164e-05     9.27427e-05    -4.08499e-05     0.000111822
                      0.0167233     -0.00900218        0.788404        0.559795     5.53359e-07    -4.91976e-07     1.98706e-06    -1.91045e-06
                   -3.21713e-05     9.39433e-05     1.08696e-06    -2.37406e-07        0.727526       -0.368367      2.2371e-07     2.35124e-07
                   -4.10945e-05     0.000112993     1.52713e-06     -1.4067e-06     4.30658e-07     3.05747e-07        0.725961       -0.366148
     5.972e+07         0.416775        0.839425       0.0167697     -0.00912478    -3.04962e-05      9.2738e-05    -3.99839e-05     0.000111666
                      0.0166042      -0.0090762        0.790684        0.556069      5.4553e-07    -4.89189e-07     1.97239e-06    -1.92101e-06
                   -3.15516e-05     9.39516e-05     1.08828e-06    -2.40301e-07        0.725839       -0.370643     2.26009e-07     2.36691e-07
                   -4.02227e-05     0.000112836     1.51344e-06    -1.40634e-06     4.37549e-07     3.06416e-07        0.724283       -0.368421
     5.974e+07         0.423771        0.836185       0.0166499     -0.00919856     -2.9879e-05     9.27287e-05    -3.91253e-05     0.000111505
                      0.0164855     -0.00914889        0.792941        0.552339     5.37784e-07    -4.86329e-07     1.95771e-06    -1.93143e-06
                   -3.09349e-05     9.39552e-05     1.08964e-06    -2.43211e-07        0.724147       -0.372907     2.28346e-07     2.38238e-07
                   -3.93584e-05     0.000112676      1.4999e-06    -1.40588e-06     4.44476e-07     3.07025e-07          0.7226       -0.370681
     5.976e+07         0.430705        0.832902       0.0165305     -0.00927099    -2.92649e-05     9.27149e-05    -3.82739e-05     0.000111341
                      0.0163672     -0.00922024        0.795174        0.548607     5.30121e-07    -4.83397e-07     1.94304e-06    -1.94173e-06
                    -3.0321e-05     9.39543e-05     1.09102e-06    -2.46136e-07        0.722451       -0.375158      2.3072e-07     2.39766e-07
                   -3.85014e-05     0.000112511     1.48651e-06    -1.40534e-06     4.51439e-07     3.07571e-07        0.720913       -0.372929
     5.978e+07         0.437579        0.829576       0.0164115      -0.0093421    -2.86538e-05     9.26966e-05    -3.74298e-05     0.000111172
                      0.0162493     -0.00929029        0.797384        0.544873     5.22541e-07    -4.80394e-07     1.92836e-06    -1.95188e-06
                   -2.97101e-05      9.3949e-05     1.09245e-06    -2.49076e-07         0.72075       -0.377396     2.33131e-07     2.41273e-07
                   -3.76518e-05     0.000112342     1.47327e-06    -1.40472e-06     4.58436e-07     3.08056e-07        0.719221       -0.375164
      5.98e+07         0.444393        0.826209       0.0162929      -0.0094119    -2.80458e-05     9.26739e-05    -3.65929e-05     0.000110999
                      0.0161317     -0.00935905        0.799571        0.541136     5.15045e-07    -4.77323e-07     1.91369e-06    -1.96191e-06
                   -2.91022e-05     9.39392e-05      1.0939e-06    -2.52033e-07        0.719045       -0.379621     2.35578e-07     2.42758e-07
                   -3.68094e-05     0.000112169     1.46017e-06    -1.40402e-06     4.65466e-07     3.08479e-07        0.717525       -0.377386
     5.982e+07         0.451145          0.8228       0.0161747     -0.00948041    -2.74409e-05      9.2647e-05    -3.57631e-05     0.000110823
                      0.0160146     -0.00942653        0.801734        0.537396     5.07631e-07    -4.74185e-07     1.89902e-06     -1.9718e-06
                   -2.84973e-05     9.39252e-05     1.09539e-06    -2.55008e-07        0.717335       -0.381834     2.38061e-07     2.44222e-07
                   -3.59741e-05     0.000111992     1.44721e-06    -1.40323e-06     4.72529e-07      3.0884e-07        0.715825       -0.379596
     5.984e+07         0.457838        0.819353       0.0160568     -0.00954765    -2.68391e-05     9.26158e-05    -3.49404e-05     0.000110642
                      0.0158979     -0.00949276        0.803875        0.533655       5.003e-07    -4.70982e-07     1.88435e-06    -1.98157e-06
                   -2.78953e-05     9.39068e-05     1.09691e-06       -2.58e-07        0.715621       -0.384034      2.4058e-07     2.45664e-07
                   -3.51461e-05     0.000111811      1.4344e-06    -1.40237e-06     4.79624e-07     3.09138e-07         0.71412       -0.381793
     5.986e+07         0.464471        0.815866       0.0159394     -0.00961363    -2.62404e-05     9.25805e-05    -3.41248e-05     0.000110458
                      0.0157815     -0.00955774        0.805993        0.529912     4.93053e-07    -4.67715e-07     1.86969e-06     -1.9912e-06
                   -2.72964e-05     9.38843e-05     1.09846e-06     -2.6101e-07        0.713904       -0.386222     2.43133e-07     2.47084e-07
                   -3.43251e-05     0.000111626     1.42174e-06    -1.40143e-06      4.8675e-07     3.09373e-07        0.712411       -0.383978
     5.988e+07         0.471044        0.812342       0.0158224     -0.00967838    -2.56449e-05      9.2541e-05    -3.33161e-05      0.00011027
                      0.0156656      -0.0096215        0.808088        0.526167     4.85888e-07    -4.64386e-07     1.85503e-06    -2.00071e-06
                   -2.67005e-05     9.38577e-05     1.10005e-06    -2.64039e-07        0.712182       -0.388397      2.4572e-07     2.48481e-07
                   -3.35111e-05     0.000111438     1.40921e-06    -1.40042e-06     4.93906e-07     3.09545e-07        0.710698       -0.386151
      5.99e+07         0.477557         0.80878       0.0157058      -0.0097419    -2.50525e-05     9.24975e-05    -3.25143e-05     0.000110079
                      0.0155501     -0.00968405        0.810161         0.52242     4.78806e-07    -4.60996e-07     1.84038e-06    -2.01008e-06
                   -2.61076e-05     9.38269e-05     1.10166e-06    -2.67088e-07        0.710456        -0.39056     2.48342e-07     2.49854e-07
                   -3.27041e-05     0.000111246     1.39682e-06    -1.39933e-06      5.0109e-07     3.09654e-07        0.708981       -0.388311
     5.992e+07         0.484012        0.805182       0.0155896     -0.00980422    -2.44632e-05     9.24501e-05    -3.17193e-05     0.000109884
                       0.015435     -0.00974541        0.812211        0.518672     4.71806e-07    -4.57548e-07     1.82573e-06    -2.01933e-06
                   -2.55178e-05     9.37922e-05      1.1033e-06    -2.70157e-07        0.708726       -0.392711     2.50997e-07     2.51204e-07
                   -3.19041e-05     0.000111051     1.38457e-06    -1.39818e-06     5.08303e-07     3.09699e-07         0.70726       -0.390458
     5.994e+07         0.490407        0.801549       0.0154739     -0.00986534    -2.38771e-05     9.23987e-05    -3.09312e-05     0.000109685
                      0.0153204      -0.0098056        0.814238        0.514923     4.64889e-07    -4.54042e-07     1.81109e-06    -2.02846e-06
                   -2.49311e-05     9.37536e-05     1.10498e-06    -2.73246e-07        0.706992       -0.394849     2.53684e-07      2.5253e-07
                   -3.11109e-05     0.000110852     1.37246e-06    -1.39696e-06     5.15544e-07     3.09681e-07        0.705536       -0.392593
     5.996e+07         0.496743        0.797881       0.0153586     -0.00992529    -2.32942e-05     9.23435e-05    -3.01498e-05     0.000109484
                      0.0152062     -0.00986462        0.816243        0.511172     4.58055e-07     -4.5048e-07     1.79646e-06    -2.03746e-06
                   -2.43474e-05     9.37111e-05     1.10668e-06    -2.76357e-07        0.705255       -0.396974     2.56404e-07     2.53831e-07
                   -3.03245e-05      0.00011065     1.36049e-06    -1.39568e-06     5.22811e-07     3.09599e-07        0.703808       -0.394716
     5.998e+07          0.50302         0.79418       0.0152437     -0.00998409    -2.27145e-05     9.22845e-05    -2.93752e-05     0.000109279
                      0.0150924      -0.0099225        0.818225        0.507421     4.51302e-07    -4.46865e-07     1.78183e-06    -2.04633e-06
                   -2.37668e-05     9.36647e-05     1.10841e-06    -2.79488e-07        0.703514       -0.399088     2.59156e-07     2.55108e-07
                   -2.95449e-05     0.000110444     1.34865e-06    -1.39433e-06     5.30104e-07     3.09452e-07        0.702076       -0.396827
         6e+07         0.509239        0.790446       0.0151293      -0.0100417    -2.21379e-05     9.22218e-05    -2.86072e-05     0.000109071
                      0.0149791     -0.00997925        0.820185        0.503668     4.44632e-07    -4.43196e-07     1.76721e-06    -2.05508e-06
                   -2.31893e-05     9.36146e-05     1.11016e-06    -2.82642e-07         0.70177       -0.401189      2.6194e-07      2.5636e-07
                   -2.87719e-05     0.000110236     1.33694e-06    -1.39292e-06     5.37421e-07     3.09242e-07         0.70034       -0.398925
