! .MODEL  SMODEL ch_model S  TSTONEFILE=.\ch_model_fit.s2p  TYPE=SFMAX=         3e+11
! The above .MODEL line can be used for the S element in the netlist.
!
!
# Hz S RI R    50
         5e+07     -0.000722193        0.009646        0.985541       -0.112955        0.985541       -0.112955    -0.000711236      0.00963054
         1e+08       0.00247847       0.0187947        0.966036       -0.224336        0.966036       -0.224336       0.0024795       0.0187661
       1.5e+08       0.00761976       0.0269775        0.933868       -0.332604        0.933868       -0.332604      0.00760553         0.02694
         2e+08        0.0144246       0.0337807        0.889537       -0.436278        0.889537       -0.436278       0.0143915       0.0337401
       2.5e+08        0.0225291       0.0388686        0.833724       -0.533968        0.833724       -0.533968       0.0224759       0.0388315
         3e+08        0.0315045        0.042001        0.767268       -0.624397        0.767268       -0.624397       0.0314322       0.0419741
       3.5e+08        0.0408824       0.0430445        0.691147       -0.706417        0.691147       -0.706417       0.0407945       0.0430337
         4e+08         0.050181       0.0419776        0.606453       -0.779022        0.606453       -0.779022       0.0500829       0.0419868
       4.5e+08        0.0589319       0.0388884         0.51437       -0.841359         0.51437       -0.841359       0.0588303       0.0389194
         5e+08        0.0667042       0.0339671        0.416149       -0.892728        0.416149       -0.892728       0.0666065       0.0340188
       5.5e+08         0.073126       0.0274929         0.31309       -0.932582         0.31309       -0.932582       0.0730391        0.027561
         6e+08        0.0779016       0.0198167        0.206519       -0.960526        0.206519       -0.960526        0.077831        0.019894
       6.5e+08        0.0808239       0.0113413       0.0977795       -0.976312       0.0977795       -0.976312       0.0807726       0.0114176
         7e+08        0.0817819      0.00249961      -0.0117882       -0.979831      -0.0117882       -0.979831       0.0817494      0.00256275
       7.5e+08        0.0807633     -0.00626724       -0.120853       -0.971107       -0.120853       -0.971107       0.0807447     -0.00623073
         8e+08        0.0778516      -0.0145316       -0.228102       -0.950299       -0.228102       -0.950299       0.0778373      -0.0145353
       8.5e+08        0.0732199      -0.0218992       -0.332252       -0.917688       -0.332252       -0.917688       0.0731949      -0.0219552
         9e+08        0.0671202      -0.0280265       -0.432052        -0.87368       -0.432052        -0.87368       0.0670645      -0.0281445
       9.5e+08        0.0598696      -0.0326357       -0.526296       -0.818805       -0.526296       -0.818805       0.0597582       -0.032821
         1e+09        0.0518345       -0.035526        -0.61383       -0.753711        -0.61383       -0.753711       0.0516385      -0.0357786
      1.05e+09        0.0434124      -0.0365815        -0.69356       -0.679169        -0.69356       -0.679169       0.0430999      -0.0368944
       1.1e+09        0.0350135      -0.0357745       -0.764469       -0.596069       -0.764469       -0.596069        0.034551      -0.0361328
      1.15e+09        0.0270415      -0.0331658        -0.82563       -0.505417        -0.82563       -0.505417       0.0263958      -0.0335461
       1.2e+09        0.0198752      -0.0289007       -0.876218       -0.408333       -0.876218       -0.408333       0.0190152      -0.0292707
      1.25e+09        0.0138515      -0.0232009       -0.915532       -0.306043       -0.915532       -0.306043       0.0127501      -0.0235193
       1.3e+09       0.00925042      -0.0163538       -0.943014       -0.199863       -0.943014       -0.199863      0.00788691       -0.016571
      1.35e+09       0.00628259     -0.00869803       -0.958261      -0.0911933       -0.958261      -0.0911933       0.0046444     -0.00875712
       1.4e+09       0.00508063    -0.000607493       -0.961048       0.0185111       -0.961048       0.0185111      0.00316515    -0.000445803
      1.45e+09       0.00569375       0.0075266       -0.951335        0.127758       -0.951335        0.127758      0.00350986      0.00797573
       1.5e+09        0.0080867       0.0153142       -0.929285         0.23505       -0.929285         0.23505      0.00565582       0.0161192
      1.55e+09        0.0121428       0.0223848       -0.895262        0.338912       -0.895262        0.338912       0.0094995       0.0236131
       1.6e+09        0.0176712        0.028404        -0.84983        0.437929        -0.84983        0.437929       0.0148631       0.0301198
      1.65e+09        0.0244169       0.0330885        -0.79375        0.530775        -0.79375        0.530775       0.0215043       0.0353499
       1.7e+09         0.032075        0.036218       -0.727958         0.61625       -0.727958         0.61625       0.0291299       0.0390746
      1.75e+09        0.0403061        0.037643       -0.653548        0.693306       -0.653548        0.693306       0.0374103       0.0411336
       1.8e+09        0.0487529       0.0372892       -0.571739        0.761071       -0.571739        0.761071       0.0459962       0.0414401
      1.85e+09        0.0570575       0.0351578       -0.483849        0.818874       -0.483849        0.818874        0.054535       0.0399813
       1.9e+09        0.0648772       0.0313214        -0.39125        0.866246        -0.39125        0.866246        0.062687       0.0368149
      1.95e+09        0.0718988       0.0259172        -0.29534        0.902933        -0.29534        0.902933        0.070139       0.0320632
         2e+09          0.07785       0.0191372         -0.1975        0.928887         -0.1975        0.928887       0.0766165       0.0259031
