! .MODEL  SMODEL ch_model S  TSTONEFILE=.\ch_model_fit.s2p  TYPE=SFMAX=         3e+11
! The above .MODEL line can be used for the S element in the netlist.
!
!
# Hz S RI R    50
         5e+07      -0.00118564      0.00926576        0.987386       -0.113031        0.987386       -0.113031     -0.00119218      0.00929047
         1e+08        0.0020278       0.0187226        0.967822        -0.22556        0.967822        -0.22556      0.00203882       0.0187218
       1.5e+08       0.00781001       0.0265641          0.9344        -0.33429          0.9344        -0.33429      0.00779304       0.0265472
         2e+08        0.0146174       0.0323346        0.889155       -0.437302        0.889155       -0.437302       0.0145748       0.0323372
       2.5e+08        0.0219004       0.0366799        0.833249       -0.534198        0.833249       -0.534198       0.0218562       0.0367087
         3e+08        0.0298114       0.0398121        0.767078       -0.624238        0.767078       -0.624238       0.0297781       0.0398541
       3.5e+08        0.0384382       0.0414785        0.691166       -0.706233        0.691166       -0.706233       0.0384124       0.0415199
         4e+08        0.0475598       0.0412636        0.606434         -0.7789        0.606434         -0.7789       0.0475301       0.0412997
       4.5e+08        0.0566371       0.0388535        0.514166       -0.841146        0.514166       -0.841146       0.0565943       0.0388904
         5e+08        0.0649533       0.0342314        0.415831       -0.892228        0.415831       -0.892228       0.0648971       0.0342797
       5.5e+08        0.0718417       0.0277247        0.312877       -0.931742        0.312877       -0.931742        0.071781       0.0277912
         6e+08        0.0768655       0.0198867         0.20661       -0.959488         0.20661       -0.959488        0.076813       0.0199687
       6.5e+08        0.0798567        0.011317       0.0982203       -0.975325       0.0982203       -0.975325       0.0798216       0.0114027
         7e+08        0.0808424      0.00253944      -0.0111246       -0.979118      -0.0111246       -0.979118       0.0808262       0.0026111
       7.5e+08        0.0799486     -0.00603142       -0.120202       -0.970768       -0.120202       -0.970768       0.0799439     -0.00599206
         8e+08        0.0773364      -0.0140677       -0.227709       -0.950279       -0.227709       -0.950279       0.0773279       -0.014076
       8.5e+08        0.0731787      -0.0212939       -0.332286       -0.917805       -0.332286       -0.917805       0.0731453      -0.0213599
         9e+08        0.0676616      -0.0274617       -0.432556        -0.87369       -0.432556        -0.87369        0.067579      -0.0275894
       9.5e+08        0.0609966      -0.0323402       -0.527175       -0.818475       -0.527175       -0.818475       0.0608393      -0.0325276
         1e+09        0.0534334      -0.0357186       -0.614873       -0.752889       -0.614873       -0.752889       0.0531756       -0.035958
      1.05e+09         0.045268      -0.0374167       -0.694498       -0.677824       -0.694498       -0.677824       0.0448847      -0.0376957
       1.1e+09        0.0368451      -0.0373018       -0.765036       -0.594315       -0.765036       -0.594315       0.0363123      -0.0376037
      1.15e+09        0.0285537      -0.0353071        -0.82563       -0.503495        -0.82563       -0.503495       0.0278479      -0.0356108
       1.2e+09        0.0208141      -0.0314507       -0.875585       -0.406569       -0.875585       -0.406569       0.0199129      -0.0317308
      1.25e+09        0.0140581       -0.025852        -0.91436       -0.304777        -0.91436       -0.304777       0.0129398      -0.0260777
       1.3e+09       0.00870068      -0.0187427       -0.941554       -0.199378       -0.941554       -0.199378      0.00734502      -0.0188769
      1.35e+09       0.00510567      -0.0104685       -0.956883      -0.0916341       -0.956883      -0.0916341      0.00349518      -0.0104664
       1.4e+09       0.00354773     -0.00147941       -0.960167       0.0171816       -0.960167       0.0171816      0.00166998     -0.00128733
      1.45e+09       0.00417619       0.0076961       -0.951322        0.125775       -0.951322        0.125775      0.00202694      0.00814072
       1.5e+09       0.00698682       0.0164907       -0.930366        0.232811       -0.930366        0.232811      0.00457373       0.0172586
      1.55e+09         0.011809       0.0243504       -0.897449        0.336899       -0.897449        0.336899      0.00915536       0.0255178
       1.6e+09        0.0183137       0.0307913       -0.852892        0.436597       -0.852892        0.436597       0.0154615       0.0324361
      1.65e+09        0.0260443        0.035452       -0.797237        0.530439       -0.797237        0.530439       0.0230555       0.0376479
       1.7e+09        0.0344663       0.0381296       -0.731281        0.616986       -0.731281        0.616986       0.0314229         0.04094
      1.75e+09        0.0430282       0.0387941       -0.656096        0.694902       -0.656096        0.694902        0.040029       0.0422665
       1.8e+09        0.0512209       0.0375767       -0.573007        0.763038       -0.573007        0.763038        0.048377       0.0417376
      1.85e+09        0.0586255       0.0347374        -0.48355        0.820505        -0.48355        0.820505       0.0560543         0.03959
       1.9e+09        0.0649425       0.0306196       -0.389387        0.866721       -0.389387        0.866721       0.0627609       0.0361426
      1.95e+09        0.0699996        0.025602       -0.292229        0.901439       -0.292229        0.901439       0.0683184       0.0317512
         2e+09        0.0737425       0.0200558       -0.193743        0.924729       -0.193743        0.924729       0.0726608       0.0267672
