!Generated from: C:\Users\peter4656563\Desktop\__Study\Test\43micro_FIT.BNP
! Port1::DQ
! Port2::DQ
!
!BroadbandSPICE Version: 24.1.0.10141.541387   000
!Computer Host Name: RD78ECE-EMCLAB
!
!TouchstoneFormatFlag = 1
! GNDNET GND
! NETSLIST
!
#	Hz	S	RI	R	50
50000000	0.00202605997874636	0.00846713540653551	0.991841573955045	-0.112020412004694	0.991762463099042	-0.112118702366975	0.00210380791703996	0.00857566873136285
100000000	0.0044998733194184	0.016741198325039	0.973310368275515	-0.223231452462925	0.973145200683735	-0.223374862754298	0.00466628556891949	0.01690670285537
150000000	0.00872565910666455	0.0244634818691511	0.94186192741077	-0.332176025840848	0.941612984416897	-0.332307456312993	0.00898301265722397	0.0246250686656787
200000000	0.0146198403984395	0.0311731816053452	0.897543749358904	-0.436949257366829	0.8972376140363	-0.437036289428359	0.0149408392952792	0.0312910514826503
250000000	0.0219174881753158	0.0364469298235657	0.840996983979997	-0.535682280095831	0.840661453018592	-0.535714104345197	0.0222682588095221	0.0365054305078318
300000000	0.0302356874769629	0.0399696182344149	0.773249789333346	-0.626777119305053	0.772906408571942	-0.626754241802199	0.0305873174125023	0.0399692899831735
350000000	0.039131883892929	0.0415483329239581	0.695535260099694	-0.708937566726818	0.695199435200464	-0.708865229498552	0.039463561173201	0.0414981743066806
400000000	0.0481420950635311	0.0411075045082989	0.609188647500835	-0.781137772067338	0.608871270462035	-0.78102303159184	0.0484407810976494	0.0410198419388437
450000000	0.0568072744158267	0.0386807167169209	0.515592110278531	-0.842586510991403	0.515300834392461	-0.842437126638746	0.0570663520047606	0.0385681025848491
500000000	0.0646943819505156	0.0344017325839589	0.416141517507367	-0.892697461661191	0.415881494319485	-0.892521453877321	0.0649121099334554	0.0342750762486815
550000000	0.0714147276324779	0.0284941534723386	0.312224362448872	-0.931064175804169	0.311998629819431	-0.930869560914694	0.0715927107355961	0.0283615955602533
600000000	0.0766401456373565	0.0212590671777176	0.205204963214765	-0.957438139008271	0.205014673706924	-0.957232671637528	0.0767818491583123	0.0211253555822173
650000000	0.0801168356262011	0.0130604409679668	0.0964153953303543	-0.971709604730941	0.0962600096565351	-0.971500495797438	0.0802261468961723	0.0129267031467803
700000000	0.0816764869254703	0.0043083135822757	-0.0128490376895503	-0.973891609898863	-0.0129715247555116	-0.973685240329429	0.0817563389337109	0.00417218292241913
750000000	0.0812442295281845	-0.00455996630152442	-0.121331139488887	-0.964107665892056	-0.12142391462454	-0.963909331626385	0.0812953215897961	-0.00470388864384822
800000000	0.0788429250495654	-0.0131000429897162	-0.227811441591478	-0.942583332988103	-0.227878531795488	-0.942397055690136	0.0788625914214711	-0.0132594062253454
850000000	0.0745933171773591	-0.02088180166684	-0.331107553522782	-0.909641459265609	-0.331153448118937	-0.909469888137283	0.0745746051704329	-0.0210654266548328
900000000	0.0687096344378361	-0.0275107527987416	-0.430074462691303	-0.865700453146781	-0.430103727884465	-0.865544870779731	0.0686406586883858	-0.0277272934615616
950000000	0.0614904078428029	-0.0326485304404196	-0.523606636809746	-0.81127466190678	-0.523623555085378	-0.811135094043634	0.0613540469048885	-0.0329049296831761
1000000000	0.0533045431732672	-0.0360313132479849	-0.610642340870285	-0.746975802941929	-0.610650605079535	-0.746851220423825	0.0530785381111193	-0.0363311269326651
1050000000	0.0445730550974529	-0.0374849083976623	-0.690170150654826	-0.673514457750414	-0.69017263655038	-0.673403050195577	0.0442305568000067	-0.0378265901794701
1100000000	0.0357472816189534	-0.0369353142278573	-0.761237309592283	-0.591700868677208	-0.761235942745061	-0.591600364140554	0.0352578738184729	-0.0373105713798158
1150000000	0.0272847849870833	-0.0344138156167423	-0.822959404407496	-0.502444615946335	-0.822955129546671	-0.502352618627117	0.026615983672989	-0.0348061590366042
1200000000	0.019624436465117	-0.030056049931828	-0.874530864411337	-0.40675310770042	-0.874523718393452	-0.406667425630356	0.0187436345839834	-0.0304396679586134
1250000000	0.0131623189774292	-0.0240949590927436	-0.915236010792969	-0.305729085071882	-0.915225294784398	-0.30564802026709	0.0120391099318644	-0.0244340424915993
1300000000	0.00823003686714521	-0.0168480399852448	-0.944460736160324	-0.20056743293454	-0.944445277393083	-0.200490006693239	0.0068388140233646	-0.0170966731331579
1350000000	0.00507680870923198	-0.00869974290859368	-0.961705276162283	-0.0925514335959102	-0.961683763345451	-0.092477519355964	0.0033995038967897	-0.00880245342746418
1400000000	0.00385638581098049	-8.01858542595116e-05	-0.966598812352786	0.0169518022167567	-0.966570180097692	0.0170214656399667	0.0018851805613212	2.6787779361931e-05
1450000000	0.00461945418318349	0.00855847491055333	-0.95891668522807	0.126497587632079	-0.958880511185047	0.126561526249394	0.00235927573509555	0.00894517971022279
1500000000	0.00731180816757876	0.0167666379014722	-0.938600693555244	0.234573120471136	-0.93855755850471	0.234629413488328	0.00478241021076643	0.0175066973167986
1550000000	0.0117782741634374	0.0241214841408072	-0.905782262966648	0.339612237898839	-0.905734011969769	0.339658961873447	0.00901570195716396	0.025288768623332
1600000000	0.0177721231147071	0.0302495981248629	-0.860807218126998	0.440017802013446	-0.860757054830505	0.440053602830857	0.0148293764003644	0.0319144184422978
1650000000	0.0249695162454805	0.0348468210507796	-0.8042596239636	0.534193801339135	-0.804211975764354	0.534218534348904	0.0219162541737191	0.0370718464132105
1700000000	0.0329883340026938	0.0376942346220684	-0.736980912811658	0.620588357229761	-0.736941026277835	0.620603703927698	0.0299095170901201	0.0405303926093122
1750000000	0.041410498100828	0.038669236467664	-0.660079611556602	0.697747259064821	-0.660052876548759	0.697757205282228	0.0384039347838488	0.0421518952066329
1800000000	0.0498065920085973	0.0377507918683266	-0.574926782212914	0.764375561939699	-0.574917835698671	0.764386617514119	0.0469794502680592	0.0418965470066997
1850000000	0.0577612431001657	0.0350182005769646	-0.483133084043891	0.8194025069019	-0.483144800883785	0.819423568098767	0.0552256942945507	0.0398225795995445
1900000000	0.0648974273937797	0.0306431514600712	-0.386505267723169	0.862043076765762	-0.386537791333819	0.862084882366998	0.0627656970274037	0.0360794973182718
1950000000	0.0708977063041276	0.0248754482086885	-0.28698275120607	0.891848453067792	-0.287032736735485	0.8919226565743	0.0692768968969714	0.0308951507574731
2000000000	0.0755205115657795	0.0180235017984925	-0.186558215709299	0.908737955576765	-0.186618441513645	0.908855914296192	0.0745076163355353	0.024557616227928
