! .MODEL  SMODEL ch_model S  TSTONEFILE=.\ch_model_fit.s2p  TYPE=SFMAX=         3e+11
! The above .MODEL line can be used for the S element in the netlist.
!
!
# Hz S RI R    50
       7.5e+10      0.000964697     -0.00748618       -0.315978       -0.929728       -0.315978       -0.929728     0.000978135     -0.00738833
     7.535e+10      0.000730499     -0.00744517       -0.323242       -0.927404       -0.323242       -0.927404     0.000746782     -0.00735617
      7.57e+10      0.000510196      -0.0073912       -0.330643       -0.925063       -0.330643       -0.925063     0.000528583     -0.00731129
     7.605e+10       0.00030488     -0.00732607       -0.338185       -0.922685       -0.338185       -0.922685     0.000324603     -0.00725542
      7.64e+10      0.000115369     -0.00725175       -0.345866       -0.920248       -0.345866       -0.920248     0.000135643      -0.0071904
     7.675e+10     -5.78296e-05     -0.00717028       -0.353683       -0.917731       -0.353683       -0.917731    -3.77853e-05      -0.0071182
      7.71e+10     -0.000214535     -0.00708377       -0.361628       -0.915111       -0.361628       -0.915111    -0.000195487     -0.00704081
     7.745e+10     -0.000354905     -0.00699429        -0.36969       -0.912371        -0.36969       -0.912371    -0.000337586     -0.00696023
      7.78e+10     -0.000479427     -0.00690385       -0.377855       -0.909492       -0.377855       -0.909492    -0.000464523     -0.00687837
     7.815e+10     -0.000588902      -0.0068143       -0.386107       -0.906459       -0.386107       -0.906459    -0.000577035     -0.00679699
      7.85e+10     -0.000684405     -0.00672729       -0.394427       -0.903261       -0.394427       -0.903261    -0.000676121     -0.00671767
     7.885e+10      -0.00076724     -0.00664419       -0.402794       -0.899889       -0.402794       -0.899889       -0.000763     -0.00664174
      7.92e+10     -0.000838882     -0.00656609       -0.411187       -0.896338       -0.411187       -0.896338    -0.000839049     -0.00657024
     7.955e+10     -0.000900905     -0.00649376       -0.419585       -0.892609       -0.419585       -0.892609    -0.000905746     -0.00650392
      7.99e+10     -0.000954914     -0.00642763       -0.427967       -0.888703       -0.427967       -0.888703    -0.000964595      -0.0064432
     8.025e+10      -0.00100248     -0.00636781       -0.436314       -0.884627       -0.436314       -0.884627     -0.00101707     -0.00638821
      8.06e+10      -0.00104505      -0.0063141       -0.444609        -0.88039       -0.444609        -0.88039     -0.00106453     -0.00633878
     8.095e+10      -0.00108395     -0.00626605       -0.452838       -0.876005       -0.452838       -0.876005     -0.00110821     -0.00629451
      8.13e+10      -0.00112025     -0.00622302       -0.460989       -0.871484       -0.460989       -0.871484     -0.00114912     -0.00625479
     8.165e+10      -0.00115482     -0.00618416       -0.469054       -0.866843       -0.469054       -0.866843     -0.00118806     -0.00621888
       8.2e+10      -0.00118824     -0.00614859       -0.477027       -0.862097       -0.477027       -0.862097     -0.00122559     -0.00618594
     8.235e+10      -0.00122087     -0.00611536       -0.484908        -0.85726       -0.484908        -0.85726     -0.00126203      -0.0061551
      8.27e+10      -0.00125281     -0.00608354       -0.492695       -0.852348       -0.492695       -0.852348     -0.00129746     -0.00612553
     8.305e+10      -0.00128392     -0.00605228       -0.500393       -0.847371       -0.500393       -0.847371     -0.00133175     -0.00609644
      8.34e+10       -0.0013139     -0.00602087       -0.508007       -0.842343       -0.508007       -0.842343     -0.00136462     -0.00606717
     8.375e+10      -0.00134228      -0.0059887       -0.515543       -0.837271       -0.515543       -0.837271     -0.00139561      -0.0060372
      8.41e+10       -0.0013685     -0.00595535        -0.52301       -0.832164        -0.52301       -0.832164     -0.00142421     -0.00600615
     8.445e+10      -0.00139191     -0.00592056       -0.530415       -0.827025       -0.530415       -0.827025      -0.0014498     -0.00597381
      8.48e+10      -0.00141185     -0.00588424       -0.537767       -0.821859       -0.537767       -0.821859     -0.00147178     -0.00594012
     8.515e+10      -0.00142767     -0.00584647       -0.545074       -0.816666       -0.545074       -0.816666     -0.00148953     -0.00590519
      8.55e+10      -0.00143874     -0.00580748       -0.552345       -0.811446       -0.552345       -0.811446     -0.00150248     -0.00586927
     8.585e+10      -0.00144453     -0.00576762       -0.559586       -0.806197       -0.559586       -0.806197     -0.00151013      -0.0058327
      8.62e+10      -0.00144455     -0.00572734       -0.566803       -0.800916       -0.566803       -0.800916     -0.00151207     -0.00579594
     8.655e+10      -0.00143846     -0.00568719       -0.574001       -0.795598       -0.574001       -0.795598     -0.00150797     -0.00575953
      8.69e+10      -0.00142598     -0.00564776       -0.581183       -0.790239       -0.581183       -0.790239     -0.00149761     -0.00572404
     8.725e+10      -0.00140696     -0.00560967       -0.588353       -0.784834       -0.588353       -0.784834     -0.00148085      -0.0056901
      8.76e+10      -0.00138134     -0.00557359       -0.595512       -0.779379       -0.595512       -0.779379     -0.00145768     -0.00565831
     8.795e+10      -0.00134917     -0.00554014        -0.60266       -0.773866        -0.60266       -0.773866     -0.00142817     -0.00562931
      8.83e+10      -0.00131059     -0.00550995       -0.609797       -0.768293       -0.609797       -0.768293     -0.00139247     -0.00560368
     8.865e+10      -0.00126582      -0.0054836       -0.616922       -0.762653       -0.616922       -0.762653     -0.00135082       -0.005582
       8.9e+10      -0.00121516     -0.00546166       -0.624033       -0.756943       -0.624033       -0.756943     -0.00130353     -0.00556476
     8.935e+10      -0.00115894      -0.0054446       -0.631127       -0.751159       -0.631127       -0.751159     -0.00125094     -0.00555246
      8.97e+10      -0.00109758     -0.00543287         -0.6382       -0.745297         -0.6382       -0.745297     -0.00119347     -0.00554549
     9.005e+10      -0.00103152     -0.00542686       -0.645251       -0.739354       -0.645251       -0.739354     -0.00113155     -0.00554423
      9.04e+10     -0.000961207     -0.00542689       -0.652274       -0.733329       -0.652274       -0.733329     -0.00106564     -0.00554897
     9.075e+10     -0.000887139     -0.00543323       -0.659266        -0.72722       -0.659266        -0.72722    -0.000996216     -0.00555996
      9.11e+10     -0.000809809     -0.00544608       -0.666223       -0.721025       -0.666223       -0.721025    -0.000923774     -0.00557738
     9.145e+10     -0.000729713      -0.0054656       -0.673141       -0.714743       -0.673141       -0.714743    -0.000848798     -0.00560138
      9.18e+10     -0.000647346     -0.00549189       -0.680017       -0.708375       -0.680017       -0.708375    -0.000771772     -0.00563204
     9.215e+10     -0.000563192     -0.00552502       -0.686845       -0.701921       -0.686845       -0.701921     -0.00069317     -0.00566941
      9.25e+10     -0.000477723     -0.00556499       -0.693622        -0.69538       -0.693622        -0.69538    -0.000613451     -0.00571348
     9.285e+10     -0.000391395     -0.00561179       -0.700345       -0.688755       -0.700345       -0.688755    -0.000533059     -0.00576423
      9.32e+10     -0.000304642     -0.00566534        -0.70701       -0.682045        -0.70701       -0.682045    -0.000452416     -0.00582159
     9.355e+10     -0.000217878     -0.00572557       -0.713614       -0.675253       -0.713614       -0.675253    -0.000371923     -0.00588545
      9.39e+10     -0.000131495     -0.00579234       -0.720153        -0.66838       -0.720153        -0.66838    -0.000291959      -0.0059557
     9.425e+10     -4.58593e-05     -0.00586554       -0.726626       -0.661428       -0.726626       -0.661428    -0.000212878     -0.00603219
      9.46e+10      3.86868e-05     -0.00594499       -0.733029       -0.654399       -0.733029       -0.654399    -0.000135011     -0.00611476
     9.495e+10      0.000121825     -0.00603051        -0.73936       -0.647295        -0.73936       -0.647295    -5.86644e-05     -0.00620323
      9.53e+10      0.000203261     -0.00612193       -0.745616       -0.640118       -0.745616       -0.640118     1.58787e-05     -0.00629741
     9.565e+10      0.000282725     -0.00621904       -0.751796       -0.632871       -0.751796       -0.632871     8.83589e-05      -0.0063971
       9.6e+10      0.000359969     -0.00632163       -0.757898       -0.625555       -0.757898       -0.625555     0.000158539      -0.0065021
     9.635e+10      0.000434769     -0.00642949        -0.76392       -0.618174        -0.76392       -0.618174     0.000226203     -0.00661219
      9.67e+10       0.00050692     -0.00654241       -0.769861        -0.61073       -0.769861        -0.61073     0.000291157     -0.00672715
     9.705e+10      0.000576238     -0.00666016       -0.775719       -0.603225       -0.775719       -0.603225     0.000353224     -0.00684677
      9.74e+10      0.000642559     -0.00678253       -0.781494       -0.595661       -0.781494       -0.595661      0.00041225     -0.00697083
     9.775e+10      0.000705736     -0.00690929       -0.787184       -0.588041       -0.787184       -0.588041     0.000468093     -0.00709912
      9.81e+10      0.000765639     -0.00704023       -0.792789       -0.580367       -0.792789       -0.580367     0.000520632     -0.00723141
     9.845e+10      0.000822155     -0.00717512       -0.798308       -0.572641       -0.798308       -0.572641     0.000569758      -0.0073675
      9.88e+10      0.000875183     -0.00731377        -0.80374       -0.564867        -0.80374       -0.564867      0.00061538     -0.00750718
     9.915e+10      0.000924639     -0.00745596       -0.809085       -0.557045       -0.809085       -0.557045     0.000657416     -0.00765024
      9.95e+10      0.000970448     -0.00760148       -0.814343       -0.549179       -0.814343       -0.549179     0.000695798     -0.00779648
     9.985e+10       0.00101255     -0.00775014       -0.819513        -0.54127       -0.819513        -0.54127      0.00073047      -0.0079457
     1.002e+11       0.00105089     -0.00790174       -0.824596       -0.533321       -0.824596       -0.533321     0.000761386     -0.00809772
    1.0055e+11       0.00108544     -0.00805609        -0.82959       -0.525333        -0.82959       -0.525333      0.00078851     -0.00825235
     1.009e+11       0.00111616     -0.00821302       -0.834497       -0.517308       -0.834497       -0.517308     0.000811812     -0.00840941
    1.0125e+11       0.00114302     -0.00837234       -0.839316       -0.509249       -0.839316       -0.509249     0.000831273     -0.00856872
     1.016e+11       0.00116601     -0.00853388       -0.844047       -0.501157       -0.844047       -0.501157     0.000846881     -0.00873013
    1.0195e+11       0.00118512     -0.00869748       -0.848691       -0.493034       -0.848691       -0.493034     0.000858628     -0.00889346
     1.023e+11       0.00120036     -0.00886297       -0.853248       -0.484882       -0.853248       -0.484882     0.000866516     -0.00905857
    1.0265e+11       0.00121171     -0.00903021       -0.857717       -0.476702       -0.857717       -0.476702     0.000870548     -0.00922529
      1.03e+11       0.00121919     -0.00919904         -0.8621       -0.468496         -0.8621       -0.468496     0.000870736     -0.00939349
    1.0335e+11       0.00122282     -0.00936933       -0.866396       -0.460266       -0.866396       -0.460266     0.000867094     -0.00956303
     1.037e+11        0.0012226     -0.00954092       -0.870607       -0.452013       -0.870607       -0.452013      0.00085964     -0.00973376
    1.0405e+11       0.00121857      -0.0097137       -0.874731       -0.443739       -0.874731       -0.443739     0.000848396     -0.00990557
     1.044e+11       0.00121074     -0.00988754       -0.878771       -0.435445       -0.878771       -0.435445     0.000833388      -0.0100783
    1.0475e+11       0.00119914      -0.0100623       -0.882726       -0.427133       -0.882726       -0.427133     0.000814644      -0.0102519
     1.051e+11       0.00118379      -0.0102379       -0.886596       -0.418803       -0.886596       -0.418803     0.000792193      -0.0104262
    1.0545e+11       0.00116475      -0.0104142       -0.890383       -0.410458       -0.890383       -0.410458      0.00076607      -0.0106011
     1.058e+11       0.00114202      -0.0105911       -0.894086       -0.402098       -0.894086       -0.402098     0.000736309      -0.0107765
    1.0615e+11       0.00111566      -0.0107684       -0.897707       -0.393724       -0.897707       -0.393724     0.000702945      -0.0109524
     1.065e+11       0.00108569      -0.0109462       -0.901245       -0.385339       -0.901245       -0.385339     0.000666018      -0.0111285
    1.0685e+11       0.00105217      -0.0111243       -0.904701       -0.376943       -0.904701       -0.376943     0.000625566      -0.0113048
     1.072e+11       0.00101512      -0.0113026       -0.908077       -0.368536       -0.908077       -0.368536     0.000581629      -0.0114813
    1.0755e+11      0.000974585       -0.011481       -0.911371       -0.360121       -0.911371       -0.360121      0.00053425      -0.0116577
     1.079e+11      0.000930613      -0.0116594       -0.914586       -0.351698       -0.914586       -0.351698     0.000483469      -0.0118342
    1.0825e+11      0.000883242      -0.0118378        -0.91772       -0.343268        -0.91772       -0.343268      0.00042933      -0.0120105
     1.086e+11      0.000832517      -0.0120161       -0.920776       -0.334833       -0.920776       -0.334833     0.000371876      -0.0121867
    1.0895e+11       0.00077848      -0.0121942       -0.923753       -0.326392       -0.923753       -0.326392      0.00031115      -0.0123625
     1.093e+11      0.000721176       -0.012372       -0.926652       -0.317948       -0.926652       -0.317948     0.000247196      -0.0125381
    1.0965e+11      0.000660648      -0.0125495       -0.929474       -0.309501       -0.929474       -0.309501     0.000180059      -0.0127132
       1.1e+11       0.00059694      -0.0127266       -0.932219       -0.301051       -0.932219       -0.301051     0.000109783      -0.0128879
