! .MODEL  SMODEL ch_model S  TSTONEFILE=.\ch_model_fit.s4p  TYPE=SFMAX=         3e+11
! The above .MODEL line can be used for the S element in the netlist.
!
!
# Hz S RI R    75
         5e+08         -0.97326       0.0517155     -0.00156294     -0.00190135    -1.46978e-05      0.00025203     5.77074e-05     0.000908884
                    -0.00159053     -0.00186494       0.0499973        0.973644     -0.00556886     -0.00208625     3.90667e-05     6.89402e-05
                   -7.09948e-06     7.41009e-06     -0.00558218     -0.00208583       -0.674229        0.692468    -0.000997725       -0.003515
                    2.68926e-05     0.000671367     3.92092e-05     7.36837e-05    -0.000985529     -0.00353673       -0.964182        -0.13048
      5.15e+08        -0.960168        0.150573     -0.00138942     -0.00139231     8.76485e-05     0.000291969     0.000167148     0.000661021
                    -0.00140426     -0.00136498        0.132863        0.966018     -0.00593287     -0.00158783     4.59832e-05     7.09831e-05
                    5.58418e-05     0.000122806     -0.00594377     -0.00158483       -0.586235        0.765054     -0.00137673     -0.00337555
                    0.000108994     0.000498949     4.86792e-05     7.27592e-05     -0.00136923     -0.00339501        -0.97139      -0.0519951
       5.3e+08        -0.937376          0.2488       -0.001096    -0.000910429     0.000199128     0.000328498     0.000209228     0.000432283
                     -0.0011018    -0.000893428        0.215532        0.950887     -0.00627102     -0.00102907     5.38435e-05     7.18743e-05
                    0.000149386     0.000230351     -0.00627907      -0.0010241        -0.49038        0.827043     -0.00173071     -0.00320138
                    0.000143541       0.0003391      5.8104e-05     7.06245e-05     -0.00172697     -0.00321827       -0.971895       0.0251313
      5.45e+08        -0.904582        0.345642     -0.00068206    -0.000480886     0.000322886     0.000359161     0.000195272      0.00023522
                   -0.000682526    -0.000474633        0.297589        0.928143      -0.0065754    -0.000406305     6.24079e-05     7.14507e-05
                    0.000273454     0.000323467     -0.00658032    -0.000400041        -0.38772        0.877644     -0.00205824     -0.00299651
                    0.000138336     0.000200778     6.73309e-05     6.73095e-05     -0.00205738      -0.0030107       -0.966177        0.100387
       5.6e+08        -0.861479        0.440221    -0.000152229    -0.000131041     0.000461456     0.000380194     0.000138486     7.91385e-05
                   -0.000150878    -0.000135135        0.378593        0.897611     -0.00683656     0.000283701     7.14246e-05     6.95966e-05
                    0.000426709     0.000395227     -0.00683818     0.000290536       -0.279375        0.916103     -0.00235837      -0.0027645
                    0.000102545     9.06898e-05      7.6223e-05     6.28599e-05     -0.00235962     -0.00277604       -0.954728        0.173354
      5.75e+08        -0.807779        0.531517     0.000482401     0.000110411     0.000616395      0.00038663     5.32852e-05    -3.01457e-05
                    0.000482381     9.71282e-05        0.458054        0.859046      -0.0070433       0.0010435     8.06378e-05     6.62398e-05
                    0.000606398     0.000438547     -0.00704158      0.00105016       -0.166552        0.941714     -0.00263047     -0.00250847
                    4.62322e-05     1.31165e-05     8.46599e-05     5.73323e-05     -0.00263314     -0.00251752       -0.938044        0.243698
       5.9e+08        -0.743252        0.618345      0.00120293     0.000214766     0.000787924     0.000372485    -4.54174e-05    -9.04603e-05
                     0.00119883     0.000194126        0.535393        0.812136     -0.00718249      0.00187462     8.97949e-05     6.13468e-05
                    0.000808199     0.000446428     -0.00717754      0.00188033      -0.0505596        0.953826     -0.00287403     -0.00223108
                   -2.01286e-05    -3.02104e-05     9.25386e-05     5.07874e-05      -0.0028776     -0.00223794        -0.91661        0.311166
      6.05e+08        -0.667768        0.699346      0.00198137     0.000155265     0.000974572     0.000331022    -0.000142971    -0.000103337
                     0.00197109     0.000129664        0.609915        0.756514     -0.00723895       0.0027771     9.86508e-05     5.49157e-05
                      0.0010261     0.000412265     -0.00723102      0.00278112       0.0671724        0.951863     -0.00308857     -0.00193465
                    -8.6184e-05    -4.01649e-05     9.97709e-05     4.32827e-05     -0.00309264     -0.00193964       -0.890896        0.375576
       6.2e+08        -0.581345        0.772978      0.00277955    -9.01504e-05      0.00117284      0.00025512    -0.000225797    -7.39499e-05
                     0.00276174    -0.000117889        0.680768        0.691767     -0.00719528      0.00374903     0.000106969      4.6969e-05
                     0.00125232     0.000330208     -0.00718477      0.00375064         0.18508        0.935349     -0.00327354     -0.00162118
                   -0.000142269    -2.02008e-05     0.000106279     3.48659e-05     -0.00327786     -0.00162466       -0.861346        0.436814
      6.35e+08        -0.484203        0.837527      0.00354854    -0.000535111      0.00137694     0.000137744    -0.000282252    -1.08928e-05
                      0.0035227    -0.000561913        0.746902        0.617464     -0.00703179      0.00478587     0.000114521     3.75455e-05
                     0.00147729     0.000195589     -0.00701924      0.00478442        0.301458        0.903944     -0.00342816     -0.00129247
                   -0.000180011     2.37825e-05     0.000111988     2.55682e-05     -0.00343262     -0.00129479        -0.82837        0.494827
       6.5e+08        -0.376821        0.891116      0.00422898     -0.00117998      0.00157851     -2.7459e-05    -0.000303509     7.42361e-05
                     0.00419552     -0.00120272        0.807022         0.53318     -0.00672635       0.0058797     0.000121077     2.66935e-05
                      0.0016897      5.4031e-06     -0.00671247      0.00587461        0.414459         0.85748     -0.00355142    -0.000950265
                    -0.00019296       8.371e-05     0.000116811     1.53998e-05     -0.00355603    -0.000951701       -0.792338        0.549612
      6.65e+08        -0.259995        0.931733      0.00475291     -0.00200581      0.00176657    -0.000245445     -0.00028443     0.000167496
                      0.0047132     -0.00202158        0.859535        0.438546     -0.00625448      0.00701825     0.000126396     1.44667e-05
                      0.0018767    -0.000241158      -0.0062401      0.00700904        0.522105        0.796003     -0.00364199    -0.000596345
                   -0.000177213      0.00014977     0.000120636     4.34927e-06     -0.00364686    -0.000597101       -0.753565        0.601212
       6.8e+08        -0.134903        0.957273       0.0050481     -0.00296722      0.00192747    -0.000518923    -0.000224369     0.000253554
                     0.00500445     -0.00297358        0.902489        0.333305     -0.00558937      0.00818361     0.000130209     9.25629e-07
                     0.00202413    -0.000542141     -0.00557547      0.00816996        0.622305        0.719819     -0.00369826    -0.000232734
                   -0.000132005     0.000211059     0.000123303    -7.61109e-06     -0.00370355    -0.000232897       -0.712306        0.649696
      6.95e+08      -0.00316337        0.965584      0.00504598     -0.00398462      0.00204514    -0.000847372    -0.000127807     0.000316962
                     0.00500157     -0.00397989        0.933498          0.2174      -0.0047022      0.00935068     0.000132193     -1.3851e-05
                       0.002117    -0.000892234     -0.00468992      0.00933242        0.712886         0.62954     -0.00371835     0.000138151
                   -6.01908e-05     0.000256455     0.000124576    -2.05095e-05     -0.00372425     0.000138628       -0.668751        0.695149
       7.1e+08         0.133109        0.954539      0.00469492      -0.0049369      0.00210152     -0.00122592    -4.70386e-06     0.000343787
                     0.00465356     -0.00492054        0.949664       0.0911064     -0.00356273        0.010485     0.000131949    -2.97405e-05
                     0.00214008     -0.00128215     -0.00355333       0.0104622        0.791634        0.526123     -0.00370023     0.000513318
                    3.14593e-05     0.000275749     0.000124121    -3.43446e-05      -0.0037069     0.000514622       -0.623017        0.737645
      7.25e+08         0.271244        0.922111      0.00398053     -0.00565708      0.00207738     -0.00164409     0.000129612      0.00032359
                     0.00394639     -0.00562994        0.947477      -0.0447842     -0.00214045       0.0115401     0.000128975    -4.65286e-05
                     0.00207868     -0.00169801     -0.00213532       0.0115131        0.856354        0.410913     -0.00364186     0.000889033
                     0.00013227     0.000261037     0.000121477    -4.90347e-05     -0.00364937     0.000891479       -0.575153        0.777228
       7.4e+08         0.407963        0.866457      0.00295505     -0.00593551      0.00195361     -0.00208436     0.000255229     0.000251704
                     0.00293217     -0.00590015        0.922736       -0.188673    -0.000406786       0.0124536     0.000122656    -6.38311e-05
                     0.00191975     -0.00212065    -0.000407419       0.0124231        0.904932        0.285679     -0.00354147      0.00126067
                    0.000228134     0.000208342     0.000116049    -6.43395e-05     -0.00354975      0.00126468       -0.525148        0.813875
      7.55e+08         0.539317        0.786025      0.00177538      -0.0055389      0.00171325     -0.00252072     0.000349434     0.000131662
                     0.00176701     -0.00549972        0.870487       -0.337721       0.0016609       0.0131427      0.00011228    -8.09797e-05
                      0.0016534     -0.00252498      0.00165297       0.0131098        0.935418        0.152637     -0.00339787      0.00162263
                     0.00030267      0.00011937     0.000107125    -7.97493e-05     -0.00340665      0.00162867       -0.472956         0.84747
       7.7e+08         0.660613        0.679657      0.00074466     -0.00425899      0.00134468     -0.00291713     0.000389862    -2.25559e-05
                     0.00075238     -0.00422222        0.785075       -0.487197      0.00407202       0.0134983     9.71225e-05    -9.68674e-05
                     0.00127506     -0.00287921       0.0040553       0.0134649        0.946132       0.0144773     -0.00321092      0.00196836
                    0.000339338     3.20568e-06     9.39488e-05    -9.43388e-05     -0.00321968      0.00197687       -0.418541        0.877771
      7.85e+08         0.766293        0.546718     0.000337481      -0.0020099     0.000846678     -0.00322652     0.000359474    -0.000185143
                    0.000360039     -0.00198311        0.660449       -0.629521         0.00681       0.0133792     7.66427e-05    -0.000109769
                    0.000788951     -0.00314442      0.00678323       0.0133478        0.935791       -0.125633     -0.00298205      0.00229058
                    0.000324852    -0.000122537     7.59054e-05    -0.000106601     -0.00299002      0.00230186       -0.361941        0.904393
         8e+08         0.849734        0.387268      0.00115728      0.00100876      0.00023625     -0.00339137     0.000253651    -0.000319267
                     0.00118935      0.00101774        0.491035       -0.752949      0.00981059       0.0126086      5.0869e-05    -0.000117197
                    0.000213539     -0.00327492       0.0097731       0.0125826        0.903679       -0.264073     -0.00271485       0.0025818
                     0.00025415    -0.000231989     5.28638e-05    -0.000114307     -0.00272102      0.00259588       -0.303367        0.926822
      8.15e+08          0.90288        0.202343       0.0037145      0.00410188    -0.000439761     -0.00334869     8.90164e-05    -0.000382406
                     0.00374555      0.00408732        0.273721       -0.840016       0.0129276       0.0109795     2.10549e-05    -0.000115929
                   -0.000409862     -0.00322158       0.0128799       0.0109636        0.849863       -0.396853     -0.00241549      0.00283534
                    0.000136717    -0.000294361      2.5761e-05    -0.000114527     -0.00241873      0.00285184       -0.243324        0.944497
       8.3e+08         0.915591     -0.00548002       0.0078338       0.0059809     -0.00108993     -0.00304512     -8.8648e-05     -0.00033962
                     0.00784813      0.00594306        0.011794       -0.866347       0.0158851      0.00828417    -9.40183e-06    -0.000102533
                    -0.00100519     -0.00294256       0.0158299      0.00828362        0.775454       -0.519836     -0.00209259      0.00304684
                    2.59264e-06      -0.0002828     -2.5814e-06    -0.000104061     -0.00209186      0.00306487       -0.182713        0.956995
      8.45e+08         0.874548       -0.230765       0.0115131      0.00532367     -0.00156704     -0.00247189    -0.000204922    -0.000187596
                      0.0114929      0.00527449        -0.27837       -0.801584       0.0182277      0.00438791    -3.40809e-05    -7.48449e-05
                    -0.00145058      -0.0024301       0.0181709      0.00440788        0.682805       -0.629191     -0.00175587      0.00321619
                   -9.70538e-05    -0.000190943    -2.66618e-05    -8.06978e-05     -0.00175047      0.00323436       -0.122806        0.964377
       8.6e+08         0.761692       -0.462073      0.00963179      0.00331753     -0.00168288     -0.00172929    -0.000180487     1.48517e-05
                     0.00956663      0.00328603       -0.558345       -0.615863       0.0193078    -0.000627767     -4.3708e-05    -3.47828e-05
                    -0.00158555     -0.00176409       0.0192597    -0.000584662        0.575419       -0.722125     -0.00141266      0.00334845
                   -0.000105066    -5.46845e-05    -3.83624e-05    -4.56092e-05     -0.00140255       0.0033651      -0.0648927        0.967603
      8.75e+08         0.552994       -0.674341      -0.0046713       0.0102591      -0.0012998     -0.00111029     6.11456e-06     0.000135184
                    -0.00476458       0.0102894        -0.76055       -0.296125        0.018387     -0.00627019    -2.92038e-05     8.26842e-06
                    -0.00128116      -0.0011905       0.0183611     -0.00620787        0.457126       -0.797658      -0.0010629      0.00345115
                   -7.70691e-07     3.78745e-05    -2.93709e-05    -6.25444e-06     -0.00104874      0.00346489     -0.00937089         0.96867
       8.9e+08         0.222933       -0.810267      -0.0263724       0.0557014     -0.00057828     -0.00111832     0.000230319     3.13658e-05
                     -0.0264227       0.0558252       -0.791584        0.125798       0.0149081      -0.0114764     1.11752e-05     3.68425e-05
                   -0.000655339     -0.00115892       0.0149162        -0.01141        0.330309       -0.856501    -0.000697005      0.00352517
                    0.000138393    -1.20893e-05     3.13994e-06     2.28588e-05    -0.000679516      0.00353525       0.0454986        0.969655
      9.05e+08        -0.214667       -0.742773      0.00776652        0.179493    -0.000411077       -0.002107     0.000214841    -0.000247621
                     0.00788411        0.179646       -0.559685        0.530712      0.00894607      -0.0145557     6.36825e-05     3.27457e-05
                   -0.000497469     -0.00203154      0.00898561      -0.0145113        0.194274       -0.898428    -0.000306921      0.00355215
                    0.000129331    -0.000178175     5.00936e-05      2.5146e-05    -0.000285901      0.00355755        0.103681        0.969822
       9.2e+08        -0.532643       -0.310912        0.261816        0.294838     -0.00222729     -0.00278844    -0.000101695    -0.000256161
                       0.262106        0.294759      -0.0968737        0.665423      0.00227735      -0.0134429     0.000100344    -5.81277e-06
                    -0.00219067     -0.00268047      0.00231619      -0.0134365       0.0487869       -0.916976     8.13619e-05      0.00350353
                    -6.8361e-05    -0.000169045     8.89951e-05    -7.09903e-06     0.000105311      0.00350028        0.166093        0.962514
      9.35e+08        -0.307881        0.171929        0.632753       0.0279045     -0.00405505    -0.000171061    -2.91115e-05     9.09909e-05
                       0.632807       0.0274824        0.202392        0.416229     -0.00080744     -0.00893689     0.000105104    -5.54971e-05
                    -0.00400486    -0.000192667    -0.000796076     -0.00893563      -0.0936462       -0.906221     0.000420145      0.00341045
                    1.30562e-06     5.87068e-05     9.49304e-05     -5.9341e-05     0.000439145      0.00339581        0.222284        0.945821
       9.4e+08        -0.158485         0.21634        0.674547       -0.147079     -0.00376539      0.00108936      0.00011177     0.000110646
                       0.674443       -0.147523        0.212223        0.325928    -0.000819332     -0.00764756     0.000100957    -7.15006e-05
                    -0.00375856      0.00104704    -0.000811318     -0.00763967       -0.138233       -0.898368     0.000528206      0.00338005
                    9.95165e-05     6.51419e-05     8.85354e-05    -7.60341e-05     0.000543645      0.00336317        0.238933        0.940702
      9.45e+08       -0.0264076        0.200068         0.65691       -0.323781     -0.00302451       0.0021382     0.000241003     5.13187e-05
                       0.656657       -0.324188        0.196516        0.261149    -0.000601135      -0.0066839      9.4051e-05    -8.71131e-05
                    -0.00306357      0.00210197    -0.000591781     -0.00666954        -0.18189       -0.889315     0.000638256      0.00334794
                    0.000186878     1.76931e-05     7.86894e-05    -9.09976e-05      0.00065001      0.00333001        0.255488         0.93634
       9.5e+08        0.0701322        0.144807        0.590617       -0.480766     -0.00200417      0.00284203      0.00032268    -6.31866e-05
                       0.590243       -0.481092        0.172327        0.222583    -0.000313417     -0.00600842      8.4076e-05    -0.000101972
                    -0.00207801      0.00283324    -0.000299387     -0.00598979       -0.225124       -0.879023      0.00075034      0.00331126
                    0.000239372    -6.64581e-05     6.58779e-05    -0.000103766     0.000758737      0.00329326        0.272472        0.932448
       9.7e+08         0.125525       -0.119426        0.119161       -0.800681      0.00211987      0.00248389      0.00011141    -0.000501118
                       0.118645       -0.800561        0.131445        0.198144     0.000520054     -0.00475763     1.43988e-05    -0.000139176
                     0.00207564      0.00261499     0.000556025     -0.00474831       -0.395822       -0.819487      0.00118403      0.00309557
                     7.0147e-05    -0.000372909    -5.80061e-06    -0.000125352      0.00118453      0.00308104        0.346025        0.913847
       9.9e+08       -0.0285323        -0.19357       -0.339053       -0.752059      0.00410033      -0.0002964    -0.000348815    -0.000391229
                      -0.339384       -0.751623        0.165396        0.185295      0.00102549     -0.00434629    -7.43279e-05    -0.000114439
                     0.00418896    -0.000177079      0.00106208     -0.00436189       -0.552839       -0.724111      0.00153008      0.00280215
                   -0.000267385    -0.000278971    -8.21968e-05    -8.93235e-05      0.00152787      0.00279009        0.420441        0.883286
      1.01e+09         -0.14787       -0.115858       -0.659789       -0.515519      0.00396892     -0.00328238    -0.000466695     5.00694e-05
                      -0.659836       -0.514957         0.19385        0.144754      0.00136191     -0.00452235     -0.00013203    -2.84607e-05
                     0.00409898     -0.00328371      0.00138293     -0.00455417       -0.682324       -0.599103      0.00178176      0.00250261
                   -0.000351424     5.72204e-05    -0.000123905    -4.26095e-06      0.00177718      0.00249116        0.487702        0.843847
      1.03e+09        -0.170111       0.0101097       -0.826589       -0.193008      0.00238737     -0.00552855    -0.000193417     0.000393188
                      -0.826359       -0.192479        0.198109        0.101838      0.00126277     -0.00512013    -0.000125595     8.48459e-05
                     0.00244147     -0.00562649      0.00126507     -0.00515482       -0.779268       -0.456742       0.0019833      0.00223163
                   -0.000142178     0.000324119     -0.00010707      9.8284e-05       0.0019753      0.00222087        0.547263        0.801352
      1.05e+09        -0.109276        0.108003       -0.845736        0.146636     5.10447e-05     -0.00661884     0.000221391     0.000412133
                      -0.845292        0.147016        0.186231       0.0711729     0.000591699     -0.00577016    -5.19384e-05      0.00018135
                   -1.23192e-05     -0.00671575     0.000580257      -0.0057986       -0.845568        -0.30697      0.00217781      0.00197735
                    0.000182404     0.000349964    -3.28607e-05     0.000180819      0.00216602      0.00196879        0.602406         0.75854
      1.07e+09       -0.0104807         0.13993       -0.737959        0.451481     -0.00236895     -0.00648622     0.000501118     0.000147631
                      -0.737397        0.451641        0.168741       0.0556104    -0.000542307     -0.00611934      6.6145e-05     0.000227073
                    -0.00250325     -0.00649764    -0.000560254     -0.00613859       -0.885283        -0.15505      0.00237786      0.00170402
                    0.000416608     0.000154907     7.68897e-05     0.000216221      0.00236328      0.00169928        0.656307        0.714505
      1.09e+09        0.0776575        0.104534       -0.534482        0.685074     -0.00431908     -0.00535196     0.000514581    -0.000200362
                      -0.533912        0.684997        0.152982       0.0530714     -0.00187999     -0.00596673     0.000193589     0.000209154
                    -0.00443711     -0.00526006     -0.00189901     -0.00597845       -0.901105      -0.0030229      0.00256258      0.00138234
                    0.000453881     -0.00011946     0.000191703     0.000195856      0.00254702      0.00138214        0.709796        0.666538
      1.11e+09         0.121038       0.0261241       -0.271737        0.826325     -0.00546006     -0.00363008     0.000310823    -0.000429729
                      -0.271261        0.826041        0.143744       0.0600455     -0.00313215      -0.0052863     0.000297838     0.000135903
                    -0.00549492     -0.00348422     -0.00315017     -0.00529388       -0.893489         0.14753      0.00269477      0.00100935
                     0.00031849    -0.000321219     0.000284685     0.000128457      0.00268002      0.00101335        0.761232        0.612446
      1.13e+09         0.107775      -0.0603508       0.0134358        0.868122     -0.00571102     -0.00179412      4.7965e-05    -0.000447714
                      0.0137484          0.8677        0.144307       0.0721382     -0.00406294     -0.00418906     0.000358799     2.92873e-05
                    -0.00565337     -0.00167239     -0.00408073      -0.0041951       -0.861921        0.293611      0.00274418     0.000610217
                    0.000119887    -0.000371622     0.000340102     3.31387e-05       0.0027314     0.000617409        0.807837        0.551957
      1.15e+09        0.0468582       -0.123119        0.287489        0.815169     -0.00522155    -0.000244353    -0.000115712    -0.000296763
                       0.287609        0.814698        0.156275       0.0838335     -0.00453112     -0.00286671     0.000371956     -8.5196e-05
                     -0.0051188    -0.000205291     -0.00455066     -0.00287174       -0.806785        0.430671      0.00270369      0.00022477
                   -2.39526e-05    -0.000289508      0.00035507    -6.91118e-05      0.00269334     0.000234034        0.847374        0.486741
      1.17e+09       -0.0390899       -0.142783        0.522925        0.681314     -0.00428286     0.000784848    -0.000105872    -0.000105953
                       0.522866        0.680879        0.178691        0.088914     -0.00450032      -0.0015369     0.000345492    -0.000187148
                    -0.00420776     0.000733541     -0.00452301     -0.00153948       -0.730499        0.553815      0.00259192    -0.000111667
                   -4.95474e-05    -0.000161531     0.000336514    -0.000162144      0.00258402    -0.000101159        0.879207         0.41939
      1.19e+09         -0.12328       -0.115607        0.700045         0.48635     -0.00321147      0.00125112     4.24058e-05    -8.90038e-06
                       0.699857        0.486013        0.207458       0.0818017     -0.00402797    -0.000397958     0.000293929    -0.000265881
                    -0.00322068      0.00115381     -0.00405358    -0.000395747       -0.637382        0.659338      0.00244306    -0.000383125
                    2.87561e-05    -8.52285e-05     0.000295707    -0.000237761      0.00243755    -0.000371879        0.904365        0.352086
      1.21e+09        -0.183135      -0.0515318        0.807305        0.252607     -0.00224833      0.00126302     0.000217027    -7.37705e-05
                       0.807053        0.252396        0.235712       0.0592674     -0.00324071     0.000402466     0.000231327    -0.000320365
                    -0.00235271      0.00119072     -0.00326726     0.000411343       -0.532528        0.745642      0.00229054    -0.000597162
                    0.000137166    -0.000117115     0.000242918    -0.000295058      0.00228756    -0.000585607         0.92474        0.285684
      1.23e+09        -0.205468       0.0310087        0.840225      0.00211692     -0.00150706      0.00099725     0.000292716     -0.00027467
                       0.839974      0.00202363        0.255162       0.0217861     -0.00230469     0.000783016     0.000166604    -0.000355653
                    -0.00166613      0.00101043     -0.00232916     0.000798952       -0.420465        0.813169      0.00215284    -0.000777989
                    0.000185717     -0.00024797     0.000184111    -0.000337148      0.00215262     -0.00076678        0.941989        0.219573
      1.25e+09        -0.188094        0.111035        0.799429       -0.244898    -0.000980659     0.000611933     0.000193081    -0.000508633
                       0.799224       -0.244909        0.257994      -0.0258827     -0.00139839     0.000731623     0.000102175    -0.000377906
                     -0.0011218     0.000729093      -0.0014179     0.000753178        -0.30423        0.863542        0.002027    -0.000952913
                     0.00011339    -0.000410372     0.000120458    -0.000367099      0.00202955    -0.000943063        0.956674         0.15225
      1.27e+09        -0.138793        0.170072        0.688812       -0.470008    -0.000593449     0.000187841    -7.27072e-05    -0.000643937
                       0.688669       -0.469989        0.238967      -0.0749646    -0.000691337      0.00030236     3.57221e-05    -0.000390062
                   -0.000646878     0.000372897    -0.000704185     0.000326652       -0.185195        0.898421      0.00189151     -0.00113797
                   -8.23465e-05    -0.000510029     5.03422e-05    -0.000384712      0.00189628     -0.00113069        0.967963        0.082256
      1.29e+09       -0.0728679        0.195841        0.514795        -0.65546    -0.000273856    -0.000285018    -0.000408209    -0.000579732
                       0.514698       -0.655456        0.197502       -0.113806    -0.000325509    -0.000387809    -3.59196e-05    -0.000389518
                   -0.000209642      -0.0001105    -0.000331888    -0.000364151      -0.0635674        0.918538      0.00171718     -0.00132758
                   -0.000339579    -0.000467665    -2.70576e-05    -0.000385214      0.00172285     -0.00132381        0.973971      0.00908944
      1.31e+09      -0.00988825        0.184908        0.287297       -0.782947    -2.05614e-05    -0.000870495    -0.000663598    -0.000298437
                       0.287204       -0.782985        0.139627       -0.130157    -0.000391755     -0.00116216    -0.000111963    -0.000368657
                    0.000127765     -0.00079154    -0.000393745     -0.00114176       0.0606578        0.923213      0.00148338     -0.00149192
                   -0.000551346    -0.000258815    -0.000107694     -0.00036054      0.00148807     -0.00149176        0.972608      -0.0662364
      1.33e+09        0.0306232        0.144419       0.0224114        -0.83371     6.87863e-05     -0.00160494    -0.000700665     0.000108075
                      0.0222711       -0.833783       0.0790665       -0.115118     -0.00089386     -0.00179715    -0.000183564     -0.00031875
                    0.000209452     -0.00166409    -0.000894629     -0.00178078        0.186608        0.910541      0.00119549     -0.00158542
                   -0.000609045     6.18198e-05    -0.000179614     -0.00030362      0.00119744     -0.00158774        0.962726       -0.141279
      1.35e+09        0.0350244       0.0919496       -0.254412       -0.791569    -0.000159181     -0.00239788    -0.000473457     0.000461366
                       -0.25464       -0.791631       0.0357949      -0.0687872     -0.00170446     -0.00206573    -0.000232849    -0.000237085
                   -0.000132356     -0.00255544     -0.00170676     -0.00205193        0.311742        0.878304     0.000895683     -0.00156866
                   -0.000461435     0.000368675    -0.000223327    -0.000215271     0.000894235     -0.00157129        0.945099       -0.213121
      1.37e+09       0.00195315       0.0514069       -0.507486       -0.649387    -0.000780527     -0.00297763    -8.41439e-05      0.00058436
                      -0.507806       -0.649368       0.0297485     -0.00572469     -0.00254262     -0.00183093    -0.000238097    -0.000134882
                   -0.000915177     -0.00311466      -0.0025472     -0.00181683        0.431945        0.825359      0.00065455     -0.00143884
                   -0.000162914     0.000521449    -0.000218164    -0.000110949     0.000650874     -0.00143971        0.922496        -0.28007
      1.39e+09       -0.0544791        0.043884       -0.695492       -0.416511     -0.00161766     -0.00296719     0.000247593     0.000428895
                      -0.695856       -0.416344       0.0692722       0.0445021     -0.00302923     -0.00117651    -0.000185736    -4.02119e-05
                    -0.00184378     -0.00295557     -0.00303419     -0.00115997         0.54293        0.752559     0.000534994     -0.00125019
                    0.000134391     0.000457749    -0.000154551    -2.16205e-05     0.000531643     -0.00124901        0.898162       -0.343199
      1.41e+09        -0.109502       0.0769639       -0.781269       -0.121808      -0.0021515     -0.00212257     0.000331543     0.000150584
                       -0.78159       -0.121465        0.138835       0.0466467     -0.00286152    -0.000496486    -8.36337e-05      1.0001e-05
                    -0.00230156     -0.00194006     -0.00286374    -0.000478451        0.642349        0.661765     0.000540692     -0.00109614
                    0.000274897     0.000261148    -4.58868e-05     1.62766e-05     0.000539451     -0.00109543        0.873081       -0.406114
      1.43e+09        -0.140382        0.140542        -0.74077         0.19036     -0.00167019     -0.00066333     0.000196967     2.19452e-05
                       -0.74095        0.190847         0.19432      -0.0209126     -0.00204479    -0.000402888     3.43076e-05    -1.24115e-05
                    -0.00161486    -0.000466177     -0.00204341    -0.000388263         0.73052        0.551798     0.000589297     -0.00103988
                    0.000240206      0.00012154     6.95988e-05    -2.08812e-05     0.000588142     -0.00104359        0.844027       -0.472029
      1.45e+09        -0.138618        0.214635       -0.566045        0.465129     6.96323e-05     0.000306354     0.000162715       0.0001596
                      -0.566019         0.46566        0.172728       -0.141855     -0.00070423     -0.00130857     0.000115653    -0.000109299
                    0.000220446     0.000279092    -0.000705393     -0.00130473        0.805399        0.409678      0.00056717     -0.00100613
                    0.000225392     0.000155426     0.000139328    -0.000127594     0.000558677     -0.00101466        0.804921       -0.539199
     1.455e+09         -0.13367        0.232764       -0.502223        0.520392     0.000478243     0.000206248     0.000220525      0.00020267
                      -0.502146         0.52091        0.148387       -0.172927    -0.000114053      -0.0017075     0.000122931    -0.000141674
                    0.000595236     0.000108585    -0.000118376     -0.00170756        0.819643        0.364909     0.000552636     -0.00096861
                    0.000261474     0.000174597     0.000142897    -0.000160766     0.000540736    -0.000977196         0.79307       -0.555168
      1.46e+09        -0.127298         0.25044       -0.431134        0.567923      0.00062173    -0.000121224     0.000313338     0.000223568
                      -0.431012        0.568417         0.11548       -0.200951     0.000808325     -0.00225132     0.000122482    -0.000175004
                    0.000673866    -0.000275797     0.000798948      -0.0022557        0.829613        0.314187     0.000548275    -0.000904544
                    0.000321555     0.000181764      0.00013878    -0.000194073     0.000532411    -0.000912112        0.780473       -0.570331
      1.47e+09        -0.111394        0.284349       -0.270325        0.634549     -0.00154011     -0.00117677     0.000576033     0.000100706
                      -0.270168        0.634958       0.0251161       -0.239071      0.00496662     -0.00510866     9.13318e-05    -0.000231728
                    -0.00169258     -0.00132901      0.00493672     -0.00512149        0.819075        0.189103      0.00067293    -0.000675588
                    0.000504413     9.07795e-05     0.000101616    -0.000248532     0.000648649    -0.000675765        0.754265       -0.596987
      1.49e+09       -0.0657812        0.368644       0.0823446        0.620991     -0.00607022       0.0351955    -4.74316e-05    -0.000437482
                      0.0824275        0.621821       -0.205389       -0.188044      -0.0196944      -0.0500277     0.000162927    -0.000146202
                    -0.00589735       0.0352162      -0.0197827      -0.0499364        0.560784         0.23881      0.00155137     -0.00195407
                    6.58169e-05    -0.000413053     0.000162152    -0.000161273      0.00155146     -0.00193217        0.714787       -0.652424
      1.51e+09         0.060361        0.417117        0.368347         0.40269        0.045466       0.0407079     0.000172639    -0.000443632
                       0.369259        0.403234        -0.35895       0.0531594      -0.0751978      0.00395775     0.000221582     -0.00051243
                      0.0451777       0.0407605      -0.0751829      0.00407929        0.826977        0.167422     -9.9381e-05     -0.00151639
                    8.93006e-05     -0.00038374     0.000219882    -0.000504946    -9.73769e-05     -0.00150964        0.652557       -0.699947
      1.53e+09         0.163529        0.344628        0.437647       0.0237742        0.128621        0.048268    -0.000996305    -0.000395354
                       0.438758       0.0234885       -0.287969        0.308212      -0.0586063        0.100091    -0.000140986    -0.000838626
                       0.129019        0.048162      -0.0584952        0.100195        0.803542       -0.070026     0.000231038    -0.000717983
                   -0.000883134    -0.000332746    -0.000125747    -0.000829082     0.000232277    -0.000733659        0.605545       -0.748586
      1.55e+09        0.0997042        0.428168        0.109967       -0.165726        0.273095       -0.167756     -0.00047335      0.00138364
                       0.110093       -0.166512       -0.247933        0.467692        0.103167       0.0810004    -0.000715589    -0.000333637
                        0.27162        -0.16853        0.103288       0.0809434        0.683945       -0.154653      0.00044435    -0.000877062
                   -0.000582539      0.00137648      -0.0006981    -0.000329051     0.000393939    -0.000868604        0.534508       -0.794069
      1.57e+09         0.412391        0.463498       0.0325626      -0.0433706       0.0721895       -0.385848     0.000317922      0.00124242
                      0.0324899      -0.0435925      -0.0108352        0.713042        0.063674      -0.0305483    -0.000294455    -6.46918e-05
                      0.0711943       -0.384305        0.063689      -0.0305969        0.650255       -0.272764     0.000613381    -0.000423427
                    0.000403476      0.00136272    -0.000266269    -6.75282e-05     0.000605559    -0.000381797        0.479345       -0.828842
      1.59e+09         0.571997        0.193907       0.0258197      -0.0267858       -0.169219       -0.436675      0.00113718      0.00159242
                      0.0258275       -0.026917        0.292671        0.733195       0.0162979      -0.0323726    -0.000185608    -0.000212795
                      -0.168693       -0.435178       0.0162998      -0.0323874        0.499976       -0.402654      0.00133035    -0.000338091
                     0.00122633      0.00152986    -0.000161804    -0.000233646      0.00134047    -0.000316058        0.409916       -0.870492
      1.61e+09         0.481397       -0.080459       0.0118382      -0.0168688       -0.447227       -0.361989      0.00263394      0.00103936
                      0.0118353      -0.0169678        0.525974        0.643891     0.000659208      -0.0178365    -0.000244079    -0.000295953
                       -0.44613        -0.36129     0.000666014      -0.0178381        0.280659       -0.420947      0.00211184    -0.000797913
                     0.00256269     0.000985559    -0.000239279    -0.000324357      0.00211553    -0.000786264        0.332181       -0.897008
      1.63e+09         0.246309       -0.168175      0.00671085     -0.00519161       -0.671535      -0.0969731      0.00335748    -0.000819588
                     0.00671758     -0.00523368        0.690391        0.509389     0.000574783     -0.00808196    -0.000323062    -0.000304657
                      -0.670482      -0.0968624     0.000588112     -0.00808261        0.110622       -0.293839      0.00254776     -0.00183102
                     0.00329091    -0.000717077    -0.000335843    -0.000322081       0.0025467     -0.00181446        0.260172       -0.913349
      1.65e+09        0.0935311      -0.0563723      0.00848933     0.000555438       -0.687591        0.273897      0.00250848     -0.00260415
                     0.00854594     0.000526649        0.798097        0.359619      0.00375083     -0.00662503    -0.000388455    -0.000288771
                      -0.686633        0.273689      0.00376496     -0.00663134       0.0931621       -0.124657      0.00222533     -0.00299525
                     0.00259688     -0.00249026    -0.000402239    -0.000288097      0.00223023     -0.00297357        0.190408       -0.931353
      1.67e+09         0.110245       0.0704787       0.0100224     0.000931497       -0.502889         0.57011      0.00105382     -0.00329517
                      0.0100993     0.000861509        0.862846        0.210033      0.00383622     -0.00883679    -0.000458419    -0.000261951
                      -0.502017        0.569551      0.00384412     -0.00884698         0.17488       -0.044486      0.00136998     -0.00368391
                     0.00118892     -0.00332182    -0.000461696    -0.000252758      0.00138199      -0.0036647        0.112482       -0.947988
      1.69e+09         0.197718       0.0997183      0.00973793     3.79176e-05       -0.235044        0.725754    -0.000131641     -0.00328512
                     0.00978186    -6.98574e-05        0.896181       0.0664271      0.00130867      -0.0103635    -0.000532328    -0.000207661
                       -0.23445        0.724823      0.00130876      -0.0103712         0.24741      -0.0607328     0.000504714     -0.00381396
                   -9.84101e-05     -0.00340121    -0.000526784    -0.000200813     0.000519066     -0.00379907       0.0276732       -0.954105
      1.71e+09         0.259747       0.0472127      0.00889916    -0.000569251          0.0405        0.764172     -0.00106477     -0.00310292
                     0.00888868    -0.000675583        0.905274      -0.0696797     -0.00182551      -0.0101869    -0.000589824    -0.000122102
                      0.0406158        0.763046      -0.0018294      -0.0101874        0.264921       -0.117536    -9.32647e-05     -0.00363588
                    -0.00114742     -0.00317713    -0.000582495     -0.00012117    -7.83092e-05     -0.00362246      -0.0569939       -0.947861
      1.73e+09         0.261782      -0.0332343      0.00826081     -0.00106881        0.296095        0.713778     -0.00201502     -0.00281036
                     0.00821047     -0.00113737         0.89428       -0.197481     -0.00444421     -0.00871758    -0.000614697    -1.89867e-05
                         0.2957        0.712746     -0.00444609     -0.00871028        0.231215       -0.167149     -0.00039294     -0.00341349
                     -0.0021209     -0.00277253    -0.000611062    -2.14226e-05    -0.000374896     -0.00339977       -0.137444       -0.932879
      1.75e+09         0.210297      -0.0956025      0.00777116      -0.0018412        0.517245        0.589727     -0.00304511     -0.00218281
                     0.00771371     -0.00185874        0.866111       -0.315833     -0.00614097     -0.00655037    -0.000604198     8.14713e-05
                         0.5165        0.589033     -0.00613602     -0.00653891        0.169759       -0.183215    -0.000499767     -0.00333039
                    -0.00307169     -0.00206806    -0.000605453     8.06681e-05    -0.000475237     -0.00331861        -0.21407       -0.913297
      1.77e+09         0.132715       -0.113508      0.00706284     -0.00292887        0.687194        0.403454     -0.00391764     -0.00102514
                     0.00702773     -0.00290762        0.823597       -0.423386     -0.00685217     -0.00419546    -0.000568651     0.000163075
                       0.686369        0.403169     -0.00683929     -0.00418594        0.109408       -0.159342     -0.00058943     -0.00345878
                    -0.00383558    -0.000935352    -0.000571826     0.000167701    -0.000558075     -0.00345443       -0.289996       -0.890641
      1.79e+09        0.0625387       -0.083751      0.00587447     -0.00403535        0.787937        0.172794     -0.00424603     0.000585928
                     0.00587229     -0.00400107        0.769936       -0.519267     -0.00670633     -0.00205609    -0.000524947     0.000221097
                       0.787256        0.172796     -0.00668893     -0.00205384       0.0745349       -0.106948    -0.000834949     -0.00373994
                    -0.00412215     0.000567173    -0.000525262      0.00023126    -0.000801479      -0.0037481       -0.368064       -0.862866
      1.81e+09        0.0250715       -0.023328      0.00425794     -0.00476508        0.808186      -0.0757209     -0.00378039      0.00226559
                     0.00427892     -0.00473869        0.708262       -0.603708     -0.00596072    -0.000400249    -0.000486378     0.000263005
                       0.807701      -0.0756512     -0.00594495    -0.000406878       0.0759985      -0.0488522     -0.00131994      -0.0040144
                    -0.00372407      0.00214394    -0.000480636     0.000275115      -0.0012924     -0.00403549       -0.448117       -0.825974
      1.83e+09        0.0281221       0.0416248      0.00252296     -0.00489485        0.749298       -0.312755     -0.00261579      0.00353641
                     0.00254946     -0.00488046        0.640779       -0.677919     -0.00492378     0.000669566    -0.000455529     0.000301078
                       0.748884       -0.312774     -0.00491519     0.000656922        0.107841     -0.00792269     -0.00199321      -0.0041132
                    -0.00268897      0.00340536    -0.000444302      0.00031041     -0.00197833     -0.00414157       -0.526639        -0.77721
      1.85e+09        0.0628718       0.0890414      0.00101177     -0.00447981        0.624127       -0.514271     -0.00114165      0.00412589
                     0.00103409      -0.0044672        0.568349       -0.743178     -0.00386666      0.00120016    -0.000425825     0.000342829
                       0.623595       -0.514368     -0.00386752      0.00118701        0.152554      0.00301751      -0.0027063     -0.00395429
                    -0.00130741      0.00409357    -0.000412876     0.000346731     -0.00270522     -0.00398089        -0.59913       -0.717151
      1.87e+09         0.112169        0.108217    -9.32074e-05      -0.0037537        0.451017       -0.665496     0.000215435      0.00410148
                   -7.01378e-05     -0.00373137        0.490994       -0.799925     -0.00296887      0.00132759    -0.000389321     0.000387143
                       0.450261        -0.66551     -0.00297767      0.00131921        0.190538      -0.0157256     -0.00330465     -0.00357736
                    6.57508e-05      0.00420726    -0.000378898     0.000386551     -0.00331205     -0.00359472       -0.663017       -0.649003
      1.89e+09         0.158916       0.0995522    -0.000804871     -0.00295186        0.248276       -0.759774      0.00123959       0.0037639
                   -0.000767333     -0.00291908         0.40887       -0.847615     -0.00231194      0.00121332    -0.000343305     0.000427868
                       0.247348       -0.759506     -0.00232487      0.00121278        0.207384      -0.0539837     -0.00370741     -0.00310659
                     0.00120635      0.00394911    -0.000337429     0.000426291     -0.00371435     -0.00311297       -0.718721       -0.576038
      1.91e+09         0.190512       0.0707948     -0.00123984      -0.0021969       0.0317902        -0.79532      0.00199994       0.0034113
                    -0.00117774     -0.00216647        0.322954       -0.885322     -0.00190002      0.00100235    -0.000291019     0.000460229
                      0.0308774       -0.794654     -0.00191289      0.00101019        0.196689       -0.097011     -0.00393632     -0.00267835
                     0.00210361      0.00356116    -0.000288524      0.00046122     -0.00393514      -0.0026786       -0.768395       -0.499366
      1.93e+09         0.200125       0.0335955     -0.00150023     -0.00149552       -0.184721       -0.772489      0.00273402       0.0031425
                     -0.0014168     -0.00148609        0.234986       -0.912593     -0.00168592     0.000802108    -0.000237367     0.000484597
                      -0.185395       -0.771458     -0.00169536     0.000817118        0.159807       -0.129722      -0.0040936     -0.00237523
                     0.00290086      0.00316641    -0.000235072     0.000489505     -0.00408209     -0.00237832       -0.813562       -0.417533
      1.95e+09         0.187131      0.00121368     -0.00160959    -0.000811892       -0.388179       -0.692571      0.00363593      0.00281364
                    -0.00152203    -0.000835757        0.146818       -0.929919     -0.00159574     0.000673188    -0.000183728     0.000505185
                      -0.388464       -0.691338     -0.00159936     0.000693384        0.104689        -0.13941      -0.0043093      -0.0021913
                      0.0037487      0.00270823     -0.00017878     0.000512558     -0.00429211     -0.00220562       -0.853359       -0.327982
      1.97e+09         0.157815       -0.013878     -0.00152863    -0.000150299       -0.564443       -0.558325      0.00468644      0.00216267
                    -0.00145944    -0.000204521       0.0596437       -0.938522     -0.00155283     0.000628526    -0.000126046     0.000525074
                      -0.564319       -0.557095      -0.0015489     0.000651452       0.0447369       -0.117939     -0.00468237     -0.00203428
                     0.00466568       0.0020154    -0.000117831     0.000531983     -0.00466908     -0.00206319       -0.884485       -0.229277
      1.99e+09         0.125359     -0.00379018     -0.00122511     0.000410811       -0.697629       -0.376213      0.00563221      0.00102005
                    -0.00118942     0.000344237      -0.0263322       -0.939632      -0.0015001     0.000642427     -5.7847e-05     0.000541472
                       -0.69719       -0.375135     -0.00148751     0.000664856     -0.00293795      -0.0643838     -0.00523437     -0.00175895
                     0.00549342     0.000949412    -4.82246e-05     0.000545765     -0.00523508     -0.00179856       -0.902809       -0.122595
      2.01e+09         0.106913       0.0301184    -0.000742196       0.0007544       -0.771916       -0.159298      0.00613516    -0.000531691
                   -0.000739002     0.000699091       -0.111538       -0.933745     -0.00141524     0.000670392     2.36294e-05     0.000545117
                      -0.771294       -0.158415      -0.0013943     0.000688184      -0.0213707       0.0124392     -0.00588823     -0.00122118
                     0.00598041    -0.000460566      3.1903e-05     0.000547038     -0.00590862     -0.00126162       -0.905539      -0.0114996
      2.03e+09         0.116636       0.0748783    -0.000211736     0.000803982       -0.776209       0.0717942      0.00600069     -0.00217009
                   -0.000224643     0.000776117       -0.196219       -0.920438     -0.00131117     0.000675012      0.00011267     0.000525182
                      -0.775488       0.0725292     -0.00128461      0.00068397    -0.000104355       0.0940553     -0.00648128      -0.0003376
                     0.00594672     -0.00199439     0.000118202     0.000527136     -0.00651968    -0.000367213       -0.892452       0.0998641
      2.05e+09         0.157467         0.10958     0.000203087     0.000584701       -0.709018        0.292348      0.00531469     -0.00352565
                    0.000195851     0.000584843       -0.279781       -0.898892     -0.00121876     0.000645822     0.000195998     0.000476615
                       -0.70819        0.292999     -0.00119186      0.00064351       0.0587515        0.157494     -0.00681254     0.000872345
                     0.00540824      -0.0033597     0.000199965     0.000481234     -0.00686058     0.000861924        -0.86522        0.208836
      2.07e+09         0.217329        0.114791     0.000391428     0.000215353         -0.5791        0.480291      0.00437088      -0.0044083
                    0.000404891      0.00023016       -0.360814       -0.868733     -0.00116108     0.000600705     0.000259223     0.000404147
                      -0.578087        0.480863     -0.00114025     0.000588172        0.139303        0.184151     -0.00670275      0.00228192
                     0.00455484     -0.00436249     0.000264603     0.000412156     -0.00674898      0.00229262       -0.825422        0.314906
      2.09e+09         0.272767       0.0823183     0.000337501    -0.000157935       -0.400351        0.620975      0.00345052     -0.00487871
                    0.000373486    -0.000146633       -0.437738       -0.830481     -0.00113559     0.000568747     0.000293693     0.000320024
                      -0.399071        0.621375     -0.00112597     0.000550946        0.216698        0.167289     -0.00603443      0.00368116
                     0.00360256     -0.00498308     0.000303165     0.000329491     -0.00606858      0.00370835       -0.772917        0.418587
      2.11e+09         0.297085       0.0207244     9.90329e-05      -0.0004265       -0.184798        0.705425      0.00264013     -0.00511414
                    0.000147694    -0.000432041       -0.509488       -0.785374     -0.00111343     0.000566694     0.000298961     0.000238312
                      -0.183231        0.705471     -0.00111649      0.00055132        0.264198        0.115135     -0.00476719      0.00478992
                     0.00265246      -0.0052948     0.000312967     0.000245637     -0.00478309      0.00482434       -0.705698        0.519609
      2.13e+09         0.269645      -0.0421581    -0.000244153    -0.000537657       0.0598581        0.721638      0.00182788     -0.00516563
                   -0.000197808    -0.000563038       -0.575848       -0.734819     -0.00105291     0.000578542     0.000281131     0.000170564
                      0.0615986        0.721091     -0.00106483     0.000573605        0.259361        0.052401        -0.00298         0.00523
                     0.00168307     -0.00528213     0.000297073     0.000172581     -0.00297726      0.00526001       -0.620912        0.615668
      2.15e+09         0.191224      -0.0574289    -0.000622547    -0.000468346        0.319901        0.642865     0.000954093     -0.00474955
                    -0.00059068    -0.000505688       -0.637416       -0.679768    -0.000929533     0.000539176     0.000250863     0.000124304
                       0.321499        0.641516    -0.000940668      0.00054911        0.194627       0.0245278     -0.00105254      0.00451246
                    0.000764454     -0.00468415     0.000263922     0.000120794     -0.00103823       0.0045267       -0.516322        0.701945
      2.17e+09         0.116902       0.0290134    -0.000955281    -0.000192855        0.542233        0.432312     0.000566975     -0.00339831
                   -0.000939624    -0.000228321       -0.695123       -0.619983    -0.000802653     0.000345288     0.000223376     0.000100618
                       0.543137        0.430191    -0.000800697     0.000365157        0.107633       0.0926374    -2.58583e-05      0.00237033
                    0.000526637     -0.00318436     0.000229828     9.61513e-05    -1.61111e-05       0.0023637        -0.39231        0.771373
      2.19e+09         0.166764        0.193308     -0.00109535     0.000267226        0.612621        0.115015      0.00199136     -0.00161595
                    -0.00108563     0.000241323       -0.748598       -0.553847    -0.000871706    -1.10447e-05     0.000213457     8.64762e-05
                       0.612332         0.11269    -0.000853262     2.84242e-06        0.110238        0.266289       -0.001322    -0.000116585
                     0.00216587     -0.00148131     0.000216035     8.75901e-05     -0.00133493    -0.000132367       -0.254058        0.817525
      2.21e+09         0.378365         0.27168    -0.000930969     0.000722081        0.481269        -0.15098      0.00524625      -0.0015864
                   -0.000918873     0.000699492       -0.794983       -0.480996     -0.00126176    -0.000276716     0.000215935     5.88684e-05
                       0.479964       -0.152667     -0.00124085    -0.000279736        0.278496        0.414825     -0.00449778     -0.00051001
                     0.00542286      -0.0016784     0.000222308     6.52916e-05     -0.00453306    -0.000510391       -0.108169        0.839671
     2.225e+09         0.554007        0.207365    -0.000674405     0.000928211        0.326718       -0.241114       0.0073987     -0.00331101
                   -0.000662895     0.000903217       -0.823888       -0.423609     -0.00164515    -0.000270423     0.000211814     2.62951e-05
                       0.325115       -0.242082     -0.00163264    -0.000281764        0.456115        0.430123     -0.00654525     0.000999246
                     0.00743701     -0.00348279     0.000222886     3.21974e-05     -0.00658455      0.00101949       0.0055595        0.841205
      2.23e+09         0.601997         0.16663    -0.000581452     0.000966293        0.277794        -0.25211      0.00786156     -0.00408971
                    -0.00057109     0.000940414       -0.832457       -0.404207     -0.00176591    -0.000230332     0.000207947     1.43565e-05
                       0.276175        -0.25285     -0.00175699    -0.000242683         0.51264         0.41689     -0.00700021      0.00172106
                     0.00784894     -0.00425833     0.000220233     1.92951e-05     -0.00703818      0.00174813       0.0443956        0.838559
     2.235e+09         0.642528        0.119304    -0.000489277     0.000990559        0.232536       -0.255997      0.00817193     -0.00490189
                   -0.000480462     0.000964008       -0.840537        -0.38471     -0.00187836    -0.000175376     0.000202734     2.32471e-06
                       0.230932       -0.256527     -0.00187302    -0.000187867          0.5653        0.396504      -0.0073276      0.00250144
                     0.00811287     -0.00505401     0.000215927     6.04735e-06     -0.00736312       0.0025349        0.083672        0.834156
      2.24e+09         0.675159        0.067197    -0.000399724      0.00100241        0.191563       -0.254299      0.00832993     -0.00570537
                   -0.000392758     0.000975503       -0.848154       -0.365128     -0.00198107    -0.000108347     0.000196203     -9.5782e-06
                       0.189999       -0.254637     -0.00197912    -0.000120193        0.613328        0.370365     -0.00753033      0.00331487
                     0.00823187     -0.00582993     0.000209966    -7.22777e-06     -0.00756247      0.00335417        0.123338        0.827874
     2.245e+09         0.699849       0.0119119    -0.000314138      0.00100333        0.155099       -0.248397      0.00834377      -0.0064595
                    -0.00030921     0.000976427       -0.855332       -0.345464     -0.00207338    -3.18592e-05     0.000188411    -2.11694e-05
                       0.153592       -0.248564      -0.0020745    -4.23834e-05        0.656353        0.339795     -0.00761544      0.00414072
                     0.00821623     -0.00654819     0.000202401    -2.02578e-05     -0.00764342       0.0041852         0.16332        0.819591
      2.25e+09         0.716828      -0.0451978    -0.000233463     0.000994717        0.123086       -0.239472      0.00822838     -0.00712565
                   -0.000230653     0.000968221       -0.862086       -0.325716     -0.00215518     5.17809e-05     0.000179427    -3.23018e-05
                       0.121651       -0.239489     -0.00215895     4.31322e-05          0.6943         0.30597     -0.00759211      0.00496308
                     0.00808213     -0.00717298     0.000193318    -3.28168e-05     -0.00761531      0.00501206        0.203524        0.809191
      2.26e+09         0.729298       -0.160714    -8.92135e-05     0.000954031       0.0713607       -0.216224       0.0076988     -0.00804805
                   -9.04823e-05     0.000929481        -0.87437       -0.285951     -0.00228864     0.000233074     0.000158171     -5.2736e-05
                      0.0700945       -0.215996     -0.00229622     0.000229364        0.755612         0.23237     -0.00725942      0.00655397
                     0.00754903     -0.00800731     0.000171002     -5.5815e-05     -0.00727168      0.00660984        0.284138          0.7816
      2.27e+09         0.716298       -0.273066     2.99919e-05     0.000889288       0.0335577       -0.190028      0.00697739     -0.00819092
                    2.53702e-05     0.000867939       -0.885056       -0.245792       -0.002386     0.000424014     0.000132942    -7.01329e-05
                      0.0324749       -0.189622     -0.00239528     0.000426117        0.799545        0.155493     -0.00660448      0.00803068
                     0.00686683     -0.00807169     0.000143837    -7.50929e-05     -0.00660462      0.00809065        0.364121         0.74429
      2.28e+09         0.681377       -0.378465     0.000122643     0.000807669      0.00656978       -0.163976      0.00641309     -0.00727973
                      0.0001158     0.000790315       -0.894141       -0.205201     -0.00245292     0.000617578     0.000104138    -8.38465e-05
                     0.00567248       -0.163444     -0.00246183     0.000625661        0.829004       0.0789975     -0.00568163      0.00936871
                     0.00637619     -0.00710841     0.000112579    -8.97947e-05     -0.00566893      0.00943012         0.44221        0.696545
      2.29e+09         0.627266       -0.474516     0.000187713     0.000715297      -0.0123357       -0.139605      0.00652181     -0.00504556
                    0.000179954     0.000702199       -0.901589       -0.164158      -0.0024947     0.000809879     7.20948e-05    -9.31647e-05
                     -0.0130517       -0.138989     -0.00250134     0.000823565        0.846769      0.00495742     -0.00452342       0.0105583
                     0.00658033     -0.00486161     7.79197e-05    -9.91297e-05     -0.00449749       0.0106186        0.516934        0.637721
       2.3e+09         0.555736       -0.559349     0.000224242     0.000617977       -0.025344       -0.117531      0.00808121     -0.00125342
                     0.00021683     0.000608868       -0.907344       -0.122659     -0.00251579     0.000999075     3.71974e-05     -9.7196e-05
                     -0.0258849       -0.116866     -0.00251851      0.00101756        0.855226      -0.0655603     -0.00314132       0.0115923
                     0.00824027     -0.00110574     4.05809e-05    -0.000102228     -0.00310203       0.0116486        0.586559        0.567217
      2.31e+09         0.467657        -0.63089     0.000231261     0.000521905       -0.034119      -0.0978454       0.0122778      0.00420838
                    0.000225231     0.000516032       -0.911331      -0.0807206      -0.0025197      0.00118463     4.51791e-08    -9.47966e-05
                     -0.0344914      -0.0971587     -0.00251706      0.00120674        0.856332       -0.132102     -0.00152702       0.0124556
                      0.0125215       0.0042656     1.47121e-06      -9.805e-05      -0.0014745        0.012505        0.648974         0.48447
      2.32e+09         0.363204       -0.686125     0.000207988     0.000434435       -0.039887      -0.0803463       0.0209208         0.01111
                     0.00020396     0.000430655       -0.913464      -0.0383719     -0.00250895      0.00136688    -3.83073e-05    -8.45404e-05
                      -0.040097      -0.0796665     -0.00249979      0.00139114        0.851658       -0.194582     0.000346596       0.0131144
                      0.0212067       0.0110232    -3.80732e-05    -8.53531e-05     0.000411812       0.0131535        0.701478        0.388979
      2.33e+09          0.24231       -0.720137     0.000154419     0.000365084      -0.0435141      -0.0646635       0.0367111       0.0183833
                    0.000152406      0.00036202       -0.913638      0.00433847     -0.00248507      0.00154679    -7.59641e-05    -6.47775e-05
                     -0.0435682      -0.0640194     -0.00246853      0.00157134        0.842457       -0.253146      0.00252291       0.0134986
                      0.0369631       0.0181096    -7.59092e-05    -6.27621e-05       0.0025995        0.013523        0.740421        0.280442
      2.34e+09         0.105849       -0.724738     7.28739e-05     0.000326907      -0.0455414      -0.0503108        0.063423       0.0230375
                    7.20793e-05     0.000323216       -0.911725       0.0473364     -0.00244835      0.00172571    -0.000109566    -3.39562e-05
                      -0.045449      -0.0497355     -0.00242393      0.00174832        0.829719       -0.308099      0.00504997        0.013471
                      0.0635239       0.0225639     -0.00010849    -2.91184e-05      0.00513514       0.0134759        0.760596        0.159226
      2.35e+09       -0.0412397       -0.686848    -2.81277e-05     0.000337859      -0.0461427       -0.036725        0.105355       0.0179638
                   -2.94558e-05     0.000332737       -0.907565       0.0904979     -0.00239732      0.00190497    -0.000133418     8.31885e-06
                     -0.0459219      -0.0362581     -0.00236517      0.00192288         0.81418       -0.359888      0.00793724       0.0127794
                       0.105146       0.0173439    -0.000130066     1.54204e-05      0.00802541       0.0127591        0.754437        0.027687
      2.36e+09        -0.182528       -0.588758    -0.000125218     0.000419316      -0.0449721       -0.023396        0.163918      -0.0115795
                   -0.000129611     0.000413384       -0.900977        0.133593     -0.00232802      0.00208455     -0.00013902      5.8443e-05
                     -0.0446604      -0.0230824     -0.00228948      0.00209453        0.796263       -0.409087       0.0110247       0.0110106
                       0.163229      -0.0121637    -0.000132401     6.65326e-05       0.0111055       0.0109604         0.71187       -0.106498
      2.37e+09        -0.277777       -0.418881    -0.000167249     0.000581583      -0.0410048      -0.0103502        0.226753      -0.0892296
                   -0.000176789     0.000577978       -0.891849        0.176201     -0.00223445      0.00225972    -0.000118235     0.000103343
                     -0.0406747      -0.0102242     -0.00219293      0.00225877        0.775897       -0.456253        0.013694      0.00769283
                       0.225524       -0.089405    -0.000108257     0.000110501       0.0137509      0.00761385        0.624607       -0.224348
      2.38e+09        -0.264176       -0.207322    -8.17956e-05     0.000782108      -0.0330992       0.0008647        0.250543       -0.230746
                   -9.50974e-05     0.000786123       -0.880418        0.217747     -0.00211464      0.00241721    -7.68416e-05     0.000118414
                     -0.0328552      0.00082012      -0.0020759      0.00240466        0.752476       -0.501401       0.0146436      0.00292455
                       0.249063       -0.230037    -6.50077e-05     0.000123012       0.0146592      0.00283209        0.502084       -0.294494
      2.39e+09        -0.120338      -0.0545457     0.000145594     0.000900518      -0.0222214      0.00726702        0.175693       -0.398808
                    0.000135345     0.000914851       -0.867434        0.258021     -0.00198272      0.00254249    -4.98489e-05     8.97956e-05
                     -0.0221374      0.00715304       -0.001952      0.00252239        0.725709       -0.543431       0.0128046     -0.00168171
                       0.174689       -0.397073    -3.84813e-05     9.22446e-05       0.0127772     -0.00175861        0.387214       -0.300222
     2.395e+09       -0.0255213      -0.0309625     0.000278883     0.000896261      -0.0168732      0.00819808       0.0978977       -0.464884
                    0.000273102     0.000914365       -0.860564         0.27786     -0.00192014      0.00259395    -5.45858e-05     6.71705e-05
                     -0.0168637      0.00809792     -0.00189387      0.00257253        0.711426       -0.562856        0.011078     -0.00320419
                      0.0974022       -0.462803    -4.38255e-05     6.93897e-05       0.0110366     -0.00326401        0.347422       -0.288047
       2.4e+09        0.0618672      -0.0432074     0.000399085     0.000851854      -0.0122558      0.00793332      0.00344359       -0.506738
                    0.000398797     0.000871719       -0.853426        0.297649     -0.00186239      0.00264166    -7.28613e-05     4.77278e-05
                     -0.0123004      0.00786931     -0.00183991      0.00262027        0.696886       -0.581199      0.00920451      -0.0040353
                     0.00354379       -0.504504    -6.24641e-05     5.02921e-05      0.00915628     -0.00407584        0.320787       -0.275289
      2.41e+09         0.173273       -0.133659       0.0005593     0.000695669     -0.00585737      0.00561051       -0.194599        -0.51417
                    0.000569193     0.000712947       -0.837994        0.337269     -0.00175877      0.00273717    -0.000135569     3.70827e-05
                    -0.00593861      0.00563675     -0.00174089      0.00271762        0.667763       -0.615237       0.0060223     -0.00405236
                      -0.193374       -0.512185    -0.000124286     4.10357e-05      0.00597928     -0.00405937        0.291162       -0.266254
      2.42e+09         0.194891       -0.241059      0.00061813     0.000530519     -0.00250901       0.0030551       -0.363529       -0.446615
                    0.000633233     0.000540291       -0.820493         0.37678     -0.00165917      0.00284117     -0.00020369     7.07743e-05
                    -0.00256155      0.00314252     -0.00164278        0.002823        0.638846         -0.6469      0.00418441     -0.00305942
                       -0.36156       -0.445337    -0.000189479     7.52367e-05      0.00415931     -0.00304784        0.263862       -0.281703
      2.43e+09         0.159304       -0.319906     0.000620948     0.000400343     -0.00079218      0.00120417       -0.490019       -0.338348
                    0.000635448     0.000402023       -0.800656        0.415715     -0.00155169      0.00295223    -0.000254077     0.000138265
                   -0.000796176      0.00130798     -0.00153568      0.00293389        0.609749       -0.677042      0.00345169     -0.00205488
                      -0.487732       -0.337913    -0.000236099     0.000141188      0.00344557     -0.00203855        0.220965       -0.306024
      2.44e+09        0.0992927       -0.360353     0.000606106     0.000306541     0.000221915     1.00961e-05       -0.577228       -0.208964
                     0.00061552     0.000302425       -0.778529        0.453641     -0.00143072      0.00306433    -0.000277297     0.000225147
                    0.000258262     9.64416e-05      -0.0014153      0.00304463        0.579968       -0.705919      0.00334081     -0.00141886
                      -0.574961       -0.209327    -0.000256029     0.000224356      0.00334944     -0.00140683        0.161781       -0.322982
      2.45e+09        0.0359866       -0.366877     0.000593516     0.000235709     0.000948547    -0.000783014       -0.629103      -0.0679017
                    0.000595312     0.000229605       -0.754296        0.490248     -0.00129496      0.00317138    -0.000270921     0.000319081
                     0.00100544    -0.000731969     -0.00128086      0.00314984        0.549137       -0.733469      0.00347891     -0.00120532
                      -0.627094      -0.0689368    -0.000247857     0.000312866      0.00349643     -0.00120239       0.0936071        -0.32269
      2.46e+09       -0.0184962       -0.347877     0.000589265     0.000172894      0.00152851     -0.00138044       -0.647223       0.0787863
                    0.000582969      0.00016912       -0.728196        0.525337     -0.00114565      0.00326827    -0.000236049     0.000409759
                     0.00158427     -0.00136846     -0.00113361      0.00324498        0.517064       -0.759466      0.00362851     -0.00134516
                      -0.645629       0.0772439    -0.000213338     0.000397202      0.00364906     -0.00135299       0.0262053        -0.30154
      2.47e+09       -0.0578045       -0.312349     0.000590762     0.000106449      0.00198714     -0.00189861       -0.631954        0.225042
                    0.000577842     0.000108998       -0.700478        0.558808    -0.000985733      0.00335109    -0.000176381     0.000488548
                     0.00202371     -0.00191891    -0.000976237      0.00332652        0.483725       -0.783618      0.00365067     -0.00172938
                       -0.63086        0.223168    -0.000156428     0.000469687      0.00366916     -0.00174734      -0.0309925       -0.261138
      2.48e+09       -0.0795882        -0.26883     0.000590647     2.99208e-05      0.00231394     -0.00238309       -0.584207        0.363936
                    0.000574144     4.17323e-05       -0.671374        0.590645    -0.000819262      0.00341749     -9.7875e-05     0.000548835
                     0.00231999     -0.00242232    -0.000812473      0.00339226        0.449266       -0.805638      0.00347663     -0.00224076
                      -0.583637        0.361898    -8.29225e-05     0.000524679      0.00348913     -0.00226663      -0.0707369        -0.20711
      2.49e+09       -0.0845374       -0.224732     0.000580104    -5.74597e-05      0.00249939      -0.0028348       -0.506671          0.4882
                     0.00056401    -3.50264e-05       -0.641066        0.620896    -0.000650775      0.00346691     -8.0715e-06     0.000586711
                     0.00247145     -0.00287713    -0.000646549      0.00344156        0.413969       -0.825313      0.00309036        -0.00277
                      -0.506604        0.486148     1.88392e-07     0.000559065      0.00309436     -0.00280059      -0.0892539       -0.147528
       2.5e+09       -0.0755578        -0.18575     0.000551689    -0.000151501      0.00254928     -0.00323346       -0.404188        0.591337
                    0.000540171    -0.000118866       -0.609669        0.649647      -0.0004845      0.00350054     8.50669e-05     0.000601374
                     0.00249116     -0.00326432    -0.000482503      0.00347543        0.378205       -0.842561      0.00251489      -0.0032271
                      -0.404565        0.589386     8.57536e-05      0.00057253      0.00250938     -0.00325886      -0.0867544      -0.0909991
      2.52e+09       -0.0328626       -0.135368      0.00042891    -0.000328971      0.00234412     -0.00378622       -0.151287        0.717736
                    0.000436159     -0.00028318       -0.543729        0.702946    -0.000170051      0.00353169     0.000254941     0.000571526
                     0.00225572     -0.00376778    -0.000171437      0.00350723        0.306732       -0.870176     0.000999538     -0.00370008
                       -0.15232        0.716194     0.000241344     0.000547189     0.000976994     -0.00372467      -0.0360165      -0.0136844
      2.54e+09        0.0156748       -0.123347      0.00023514    -0.000442882      0.00196826     -0.00397374        0.118744         0.73253
                    0.000265312    -0.000398245       -0.473405        0.750724     0.000115309      0.00353698     0.000379992      0.00049422
                     0.00189501     -0.00390571     0.000111123      0.00351244        0.236908       -0.890293    -0.000619842      -0.0034726
                       0.117337        0.731488     0.000357504     0.000480748    -0.000651704     -0.00348207       0.0325411    -0.000516619
      2.56e+09        0.0499139       -0.136522     2.08113e-05     -0.00046499      0.00165352     -0.00389768        0.362359        0.651913
                    6.81563e-05    -0.000433818       -0.398477        0.792417     0.000380935      0.00353645     0.000460646     0.000404879
                     0.00162186     -0.00380806     0.000373264      0.00351122        0.169077       -0.905158     -0.00199413     -0.00264957
                       0.360758        0.651357     0.000436263     0.000403823     -0.00202612     -0.00264225       0.0749358       -0.036664
      2.58e+09        0.0649039       -0.158502    -0.000163698    -0.000407064      0.00149389     -0.00373152        0.554805         0.50153
                   -0.000109995    -0.000394805       -0.319194        0.827019     0.000642961      0.00353685     0.000513933     0.000321835
                     0.00150323     -0.00365316     0.000630559       0.0035113        0.102346        -0.91622     -0.00294371     -0.00143486
                       0.553116        0.501449     0.000493173     0.000331004     -0.00296844     -0.00141354       0.0726311      -0.0887118
       2.6e+09        0.0648897       -0.177805    -0.000290431    -0.000304288      0.00146244     -0.00362142        0.684491        0.306034
                   -0.000240903    -0.000309181       -0.236378        0.853529     0.000915102      0.00353368     0.000557072     0.000246201
                     0.00149317     -0.00357523     0.000897085       0.0035092       0.0355188       -0.923778     -0.00340641    -2.60784e-05
                       0.682809        0.306445     0.000542794      0.00026176     -0.00341931     4.22746e-06        0.031152       -0.125343
      2.62e+09        0.0572751       -0.189357     -0.00035798    -0.000195354      0.00146839     -0.00364131        0.746772        0.087137
                   -0.000319284    -0.000210797       -0.151285        0.871258      0.00120442      0.00351612     0.000599015     0.000169335
                     0.00149506     -0.00363014      0.00118083      0.00349458       -0.032208       -0.927231     -0.00338245       0.0014073
                       0.745231       0.0880589     0.000591671     0.000187567     -0.00338173      0.00144094      -0.0296307       -0.127746
      2.64e+09        0.0489022       -0.193238    -0.000385112    -0.000107972      0.00141132     -0.00378817         0.74137       -0.135153
                   -0.000358661    -0.000125876      -0.0653619        0.879983      0.00151032      0.00347176      0.00063872     8.07993e-05
                      0.0014142     -0.00379936       0.0014822      0.00345476       -0.100898       -0.925566     -0.00291182      0.00271801
                       0.740144       -0.133745     0.000637285     9.90931e-05     -0.00289793      0.00274972      -0.0854984      -0.0923399
      2.66e+09        0.0441536       -0.192733    -0.000399485    -5.14594e-05      0.00122131     -0.00400066        0.672451        -0.34189
                   -0.000382107    -6.53751e-05       0.0200037        0.879968      0.00182554      0.00339042      0.00066751    -2.56314e-05
                     0.00119328     -0.00401359      0.00179452      0.00337882       -0.169852       -0.917873     -0.00207146       0.0037806
                       0.671721       -0.340102     0.000670528    -8.56788e-06     -0.00204654      0.00380611       -0.116087      -0.0289251
      2.68e+09        0.0442683       -0.192313    -0.000425367    -1.68452e-05      0.00088093     -0.00419113        0.549173       -0.516196
                   -0.000411405    -2.39508e-05        0.103702        0.871839      0.00213863      0.00326702     0.000673644    -0.000148803
                    0.000828408     -0.00418634      0.00210632      0.00326074       -0.237859       -0.903754    -0.000972857      0.00450235
                       0.549076        -0.51422     0.000680003    -0.000133312    -0.000940092      0.00451872       -0.110504       0.0442791
       2.7e+09        0.0476291       -0.195835    -0.000474359     1.63677e-05     0.000425713     -0.00428114        0.385163       -0.645176
                   -0.000458301     1.48982e-05        0.185013        0.856376      0.00243727      0.00310261     0.000647331    -0.000280232
                    0.000364495     -0.00424743      0.00240475      0.00310088       -0.303619       -0.883498     0.000250533      0.00483688
                       0.385748       -0.643263     0.000656573    -0.000266348     0.000287503      0.00484264      -0.0693823        0.107264
      2.72e+09         0.050792       -0.205288     -0.00054231     6.99733e-05    -7.44432e-05     -0.00422799         0.19665       -0.721433
                   -0.000520924     7.01127e-05        0.263573         0.83429      0.00271151      0.00290345     0.000584399     -0.00040685
                   -0.000126038      -0.0041654      0.00267909      0.00290536       -0.366156       -0.857963      0.00146463       0.0047897
                       0.197852       -0.719838     0.000596539     -0.00039488      0.00150227      0.00478466     -0.00309889        0.144375
      2.74e+09        0.0498425       -0.220342     -0.00061276     0.000157909    -0.000542992     -0.00403395     1.36902e-05       -0.743276
                   -0.000586064     0.000154758        0.339228        0.806064      0.00295574      0.00267871     0.000487489    -0.000514945
                   -0.000570688     -0.00395231      0.00292302      0.00268369       -0.425056       -0.828264      0.00255619      0.00441095
                     0.00166441       -0.742204     0.000502551    -0.000505729      0.00259144      0.00439596       0.0726506        0.147985
      2.76e+09        0.0416079       -0.238634    -0.000664349     0.000281521    -0.000921372     -0.00373841       -0.190218       -0.713682
                   -0.000635296     0.000271279        0.411842        0.771932       0.0031689      0.00243787     0.000364928    -0.000593592
                   -0.000918999     -0.00365291      0.00313523      0.00244603       -0.480469        -0.79541       0.0034462      0.00377918
                      -0.188352       -0.713249      0.00038246    -0.000588391      0.00347666      0.00375574        0.141832        0.119006
      2.78e+09        0.0244329       -0.256501    -0.000678608     0.000429925      -0.0011827     -0.00340003       -0.362343       -0.638668
                   -0.000651848     0.000411218        0.481145        0.731955      0.00335361      0.00218866     0.000228317    -0.000636599
                    -0.00115302     -0.00332592       0.0033185      0.00220083       -0.532923       -0.760039      0.00409266      0.00298315
                      -0.360514       -0.638883     0.000247087    -0.000636697      0.00411662      0.00295314        0.191867       0.0650054
       2.8e+09      -0.00152197        -0.26984    -0.000645568      0.00058404     -0.00133332     -0.00307741       -0.507513       -0.525831
                    -0.00062584     0.000558335        0.546655        0.686157      0.00351456      0.00193602     8.99543e-05    -0.000642876
                    -0.00128617     -0.00302562      0.00347813      0.00195355        -0.58305       -0.722315      0.00448549      0.00210777
                      -0.505944       -0.526604     0.000107948     -0.00064907      0.00450184      0.00207321        0.215567     -0.00273196
      2.82e+09       -0.0343533       -0.274896    -0.000566221     0.000722249     -0.00140554     -0.00281397       -0.619234       -0.383434
                   -0.000556871     0.000693418        0.607692        0.634671      0.00365701      0.00168196     -3.9209e-05    -0.000615717
                    -0.00135429     -0.00278859      0.00362021       0.0017063       -0.631334       -0.681967      0.00463796      0.00122585
                      -0.618085       -0.384599    -2.45008e-05    -0.000627868       0.0046461      0.00118878        0.211419      -0.0720908
      2.84e+09       -0.0707302       -0.268893    -0.000452046     0.000826053     -0.00144549     -0.00262944       -0.692814       -0.220065
                   -0.000454002     0.000799296        0.663456        0.577857      0.00378563      0.00142584    -0.000150875    -0.000561544
                    -0.00140316     -0.00262722      0.00375026       0.0014581       -0.677926       -0.638446      0.00457828     0.000395107
                      -0.692158        -0.22142    -0.000141948     -0.00057832      0.00457804     0.000357556        0.182799       -0.132407
      2.86e+09        -0.106377       -0.250497    -0.000322151     0.000884657     -0.00149999     -0.00251793       -0.725043      -0.0446784
                   -0.000333568     0.000865107        0.713151        0.516366      0.00390364      0.00116511    -0.000240029    -0.000488468
                    -0.00147569     -0.00252972      0.00387211      0.00120564       -0.722541       -0.591128      0.00434299    -0.000341755
                       -0.72486      -0.0460227    -0.000238758     -0.00050737       0.0043346    -0.000377822         0.13658       -0.176025
      2.88e+09        -0.136686       -0.220096    -0.000198727     0.000897785     -0.00160447     -0.00245191       -0.714208        0.133265
                   -0.000215347     0.000889107         0.75614        0.451132      0.00401234     0.000896026     -0.00030501    -0.000404887
                    -0.00160118     -0.00246547      0.00398726     0.000944119       -0.764486       -0.539544      0.00397242    -0.000955551
                      -0.714401        0.132091    -0.000312079    -0.000422581       0.0039565    -0.000988224       0.0814634       -0.199149
       2.9e+09        -0.157416       -0.179832    -0.000101578     0.000876164     -0.00177449     -0.00239107        -0.66039        0.303795
                   -0.000117747     0.000879484         0.79208        0.383291      0.00411084     0.000614427    -0.000347076    -0.000318238
                    -0.00178838      -0.0023946      0.00409448      0.00066831       -0.802769       -0.483584      0.00350773     -0.00142874
                       -0.66081        0.302878    -0.000361597    -0.000331164      0.00348533     -0.00145622       0.0261912       -0.202013
      2.92e+09         -0.16539       -0.133349    -4.28046e-05     0.000839316     -0.00200233     -0.00229416       -0.565874        0.456693
                   -5.29369e-05     0.000852772        0.821014        0.314034      0.00419606     0.000316589    -0.000369544    -0.000234045
                     -0.0020239     -0.00227968      0.00418989     0.000373635       -0.836321       -0.423612      0.00298907     -0.00175368
                      -0.566363        0.456036    -0.000389003    -0.000239199      0.00296175     -0.00177441      -0.0221366       -0.188338
      2.94e+09        -0.159045      -0.0852286    -2.29615e-05     0.000810798     -0.00226006     -0.00213127       -0.435476        0.582058
                   -2.30978e-05     0.000829904        0.843369        0.244408      0.00426297    -3.59901e-08    -0.000376603    -0.000155454
                    -0.00227691     -0.00209704      0.00426725     5.71789e-05       -0.864252       -0.360475       0.0024544     -0.00193117
                      -0.435911        0.581582    -0.000397214    -0.000151161      0.00242418     -0.00194395       -0.059379       -0.164108
      2.96e+09        -0.138666      -0.0402079    -2.99814e-05     0.000811764     -0.00250883     -0.00189292       -0.276627        0.671062
                   -1.90035e-05     0.000830573        0.859851        0.175138      0.00430499    -0.000336115    -0.000372069    -8.33978e-05
                     -0.0025092     -0.00184417      0.00431872    -0.000281462       -0.886096       -0.295357      0.00193876     -0.00196921
                      -0.276956        0.670638    -0.000389495    -6.98618e-05      0.00190811     -0.00197347      -0.0849824       -0.135831
      2.98e+09        -0.106224     -0.00236518    -4.16021e-05     0.000854451     -0.00271199     -0.00159305      -0.0991604        0.716744
                   -2.16978e-05     0.000867264        0.871249        0.106518      0.00431459    -0.000689856    -0.000358392    -1.73901e-05
                    -0.00268845     -0.00154078      0.00433582    -0.000639615       -0.901953       -0.229517      0.00147397     -0.00188226
                     -0.0994213        0.716235    -0.000368713     3.16596e-06       0.0014456     -0.00187824        -0.10169       -0.108658
         3e+09       -0.0648167       0.0255044    -3.11096e-05     0.000937451     -0.00284855     -0.00126403        0.085151        0.714714
                   -7.23941e-06     0.000940631         0.87818       0.0384252      0.00428412     -0.00105654    -0.000336283     4.32366e-05
                    -0.00280048     -0.00122203      0.00431052     -0.00101127        -0.91247       -0.163962      0.00108819     -0.00169114
                       0.084831         0.71403    -0.000336964     6.69428e-05      0.00106473     -0.00168008       -0.114299      -0.0848194
      3.02e+09       -0.0178832       0.0421258     2.47823e-05      0.00104444     -0.00292208    -0.000944378          0.2632        0.663732
                    4.64025e-05      0.00103775        0.880877      -0.0295216      0.00420684     -0.00142819    -0.000305171     9.80531e-05
                    -0.00285638    -0.000925225       0.0042365      -0.0013871       -0.918636      -0.0991603     0.000804966     -0.00142356
                       0.262642        0.662878    -0.000295751     0.000120241     0.000788584     -0.00140771       -0.127686      -0.0628784
      3.04e+09        0.0315624        0.047518      0.00013785      0.00114732     -0.00296137     -0.00066215        0.421293        0.566245
                    0.000151922      0.00113426        0.879074       -0.097682      0.00407821     -0.00179348    -0.000264456     0.000144731
                     -0.0028909    -0.000673284      0.00411043     -0.00175492        -0.92142       -0.034892     0.000640882     -0.00111477
                       0.420325        0.565345    -0.000246725     0.000161079     0.000632759     -0.00109725       -0.144568      -0.0381432
      3.06e+09        0.0814182       0.0423752     0.000302464      0.00121376     -0.00301053    -0.000419249         0.54615        0.428882
                     0.00030681      0.00120054        0.872083       -0.166064      0.00389777     -0.00213825    -0.000215233     0.000179227
                    -0.00295055    -0.000460299      0.00393346     -0.00210051       -0.921337       0.0296662     0.000601284    -0.000807232
                        0.54468        0.428173    -0.000192744     0.000186882     0.000601189    -0.000791543       -0.163622     -0.00436879
      3.08e+09         0.130491       0.0272731     0.000494431       0.0012179      -0.0031093    -0.000183204        0.626389        0.262765
                     0.00049137      0.00121108        0.859084       -0.234058        0.003671     -0.00244698    -0.000161771     0.000197263
                    -0.00307275    -0.000245662      0.00371257     -0.00240947       -0.918086       0.0955835     0.000674692    -0.000547052
                       0.624471         0.26254    -0.000138761     0.000195549     0.000680752    -0.000536397       -0.178732       0.0434531
       3.1e+09         0.177941      0.00203522     0.000676606      0.00115127     -0.00326881     0.000107026        0.654512       0.0831379
                    0.000672659      0.00115471         0.83958       -0.300389      0.00341072     -0.00270579    -0.000111819     0.000196935
                    -0.00326193      3.7274e-05      0.00346129     -0.00267001       -0.910448        0.163584     0.000828205    -0.000375827
                       0.652373       0.0836547    -9.18315e-05     0.000187272     0.000837116    -0.000372183       -0.180059        0.105922
      3.12e+09         0.222341      -0.0343864     0.000811305      0.00102933     -0.00345278     0.000518253        0.628953      -0.0922026
                    0.000814776      0.00104151        0.813866       -0.363396      0.00313694     -0.00290665     -7.4848e-05     0.000181548
                    -0.00347283     0.000456024      0.00319875     -0.00287659       -0.896609        0.233413      0.00100786    -0.000317993
                       0.626967      -0.0908259    -5.96633e-05     0.000166443      0.00101566    -0.000321331       -0.157153         0.17691
      3.14e+09          0.26072      -0.0832991     0.000876005      0.00088897     -0.00357629      0.00108805        0.555255       -0.245776
                    0.000892863      0.00090234        0.783261       -0.421653      0.00287398     -0.00305181    -5.80886e-05     0.000161114
                    -0.00361281      0.00104323      0.00294677     -0.00303332       -0.874927        0.303479      0.00114744    -0.000367355
                       0.553838       -0.243645    -4.76337e-05     0.000142553      0.00115082    -0.000375366        -0.10337        0.243424
      3.16e+09         0.288031       -0.144968     0.000875738     0.000775634     -0.00352985      0.00179039        0.445501       -0.363845
                     0.00090524     0.000778992        0.749865        -0.47472      0.00264502     -0.00315699    -6.12638e-05     0.000150946
                    -0.00356925      0.00176401      0.00272474     -0.00315607       -0.844928         0.37107      0.00118624    -0.000478517
                       0.444965       -0.361298    -5.49404e-05     0.000129038      0.00118402    -0.000487242      -0.0200187         0.28821
      3.18e+09         0.297349       -0.216736     0.000845626      0.00072315     -0.00322859      0.00251811        0.315967       -0.439213
                    0.000877916     0.000707432        0.715736       -0.523723      0.00246417     -0.00325256    -7.17009e-05     0.000166153
                     -0.0032608      0.00250204      0.00254277      -0.0032727        -0.80814        0.433327        0.001093    -0.000567982
                       0.316371        -0.43672    -7.08736e-05     0.000139331       0.0010872    -0.000573577       0.0811757        0.294401
       3.2e+09         0.281452       -0.290403     0.000838891     0.000731896     -0.00268327      0.00310211        0.183667       -0.472875
                    0.000857628     0.000698301        0.681493       -0.571302       0.0023243     -0.00338096    -6.25839e-05     0.000210524
                    -0.00270767      0.00308352      0.00239146     -0.00341998       -0.768221         0.48903     0.000893807    -0.000529352
                       0.184746       -0.470819    -7.26862e-05     0.000178716     0.000889256    -0.000530922        0.177461        0.251537
      3.22e+09         0.238306       -0.349576     0.000893693     0.000755738     -0.00206999      0.00341379       0.0612243       -0.474568
                    0.000887685     0.000721359         0.64466       -0.619997      0.00217912     -0.00358021    -3.16316e-06     0.000259052
                    -0.00209703      0.00338411      0.00222738     -0.00362812        -0.72915        0.540916     0.000697589    -0.000276502
                      0.0625604       -0.472945    -3.13023e-05     0.000229791     0.000698302    -0.000278666        0.237368        0.164327
      3.24e+09         0.182761       -0.374701      0.00098282     0.000732255     -0.00164986      0.00358508      -0.0515201       -0.458048
                    0.000963785     0.000719405        0.600371       -0.668089      0.00194468     -0.00383355     0.000102326     0.000253315
                    -0.00169322       0.0035486      0.00197737      -0.0038766        -0.68986         0.59541     0.000671802     0.000174045
                     -0.0499575        -0.45646      5.9146e-05     0.000243123     0.000674307     0.000163848        0.233889       0.0628818
      3.26e+09         0.147418       -0.366773      0.00103143     0.000677868     -0.00134118      0.00401134       -0.167951       -0.422802
                      0.0010284     0.000682915        0.548678       -0.708291      0.00158629     -0.00403352     0.000180849     0.000163454
                    -0.00140445      0.00398065      0.00161728     -0.00406781       -0.641471        0.653569     0.000910102     0.000687892
                      -0.165513       -0.421253     0.000144468     0.000179855     0.000903806     0.000670698        0.170755     -0.00723152
      3.28e+09         0.148927       -0.356901      0.00105781     0.000678631    -0.000604452      0.00469301       -0.286587       -0.345242
                      0.0010755     0.000670971        0.498067       -0.738392      0.00119811     -0.00409938     0.000172841     5.38046e-05
                   -0.000683934       0.0046753      0.00123529     -0.00413511       -0.580197        0.705035      0.00140705      0.00117937
                      -0.282969       -0.344767     0.000161731     7.76094e-05       0.0013894      0.00116721       0.0787735      -0.0205879
       3.3e+09         0.172876       -0.371502      0.00116354     0.000718394     0.000751184      0.00501266        -0.37243       -0.211728
                     0.00117457     0.000685021        0.452711       -0.766103     0.000876809     -0.00408135     0.000114223    -7.77046e-06
                    0.000655828      0.00501428     0.000914727     -0.00412749       -0.515376        0.743343      0.00225475      0.00157875
                      -0.368642       -0.213345     0.000118455    -1.48784e-06      0.00223672      0.00157817      -0.0142368       0.0321267
      3.32e+09         0.198007       -0.417945      0.00135666     0.000682538      0.00221492      0.00449766       -0.383932      -0.0485438
                     0.00134059     0.000643325        0.406846       -0.796872     0.000619838     -0.00405824     5.83235e-05    -2.81076e-05
                     0.00210973      0.00453232     0.000650449     -0.00411393       -0.454986        0.774771      0.00351375      0.00157897
                      -0.381579       -0.051979     5.24137e-05     -4.1107e-05       0.0035054      0.00158214       -0.066886        0.157366
      3.34e+09         0.204318       -0.492684      0.00152829     0.000520663      0.00311231      0.00334431       -0.314338       0.0870163
                     0.00149428     0.000499937        0.354203       -0.827137     0.000382879      -0.0040531     1.05819e-05    -3.77663e-05
                     0.00301875      0.00341976     0.000403735     -0.00411321       -0.395911        0.807458      0.00484734     0.000823616
                        -0.3142       0.0832143    -1.77521e-05    -4.95103e-05      0.00484564     0.000818195      -0.0243347        0.319589
      3.36e+09         0.177028       -0.579931      0.00159221     0.000307147      0.00326448      0.00217739       -0.206142        0.153603
                     0.00156256     0.000307111        0.295861       -0.850411     0.000142571     -0.00405053    -4.55557e-05    -3.92136e-05
                     0.00320557      0.00228086     0.000155224     -0.00411217       -0.330523        0.840845      0.00568308    -0.000589828
                      -0.207658        0.150803    -8.55811e-05    -3.09281e-05      0.00567623    -0.000606931        0.119288        0.440442
      3.38e+09         0.116411        -0.65919      0.00157044     0.000134039       0.0030121       0.0013945       -0.109944        0.158516
                     0.00155583     0.000140028        0.237163       -0.865167    -9.88269e-05     -0.00403752    -0.000109547    -1.75121e-05
                     0.00299422       0.0015018    -9.32708e-05     -0.00410051       -0.256842        0.868577       0.0057837     -0.00216695
                      -0.112017        0.157123    -0.000142963     1.23518e-05       0.0057633     -0.00218872        0.307196        0.471151
       3.4e+09        0.0335949       -0.718476      0.00152837     2.35705e-05      0.00271908     0.000975418       -0.046121        0.132877
                     0.00152458     2.21118e-05        0.181225       -0.874149    -0.000335732     -0.00401429    -0.000166503     3.23543e-05
                     0.00273297      0.00106776    -0.000337696      -0.0040786       -0.178403        0.886623      0.00532336      -0.0035153
                     -0.0479697        0.132578    -0.000182515     7.37222e-05      0.00528868     -0.00353261        0.480946         0.42056
      3.42e+09       -0.0601751       -0.755406      0.00150516    -4.89826e-05      0.00253326      0.00074665      -0.0110585         0.10035
                     0.00150231    -6.28224e-05        0.128025       -0.880154    -0.000568486     -0.00398457    -0.000204378     0.000103456
                     0.00256446     0.000816097      -0.0005788     -0.00404929      -0.0991335        0.894856      0.00457152     -0.00451402
                     -0.0123793        0.100659    -0.000201542     0.000144812      0.00452649     -0.00452062        0.614354        0.320389
      3.44e+09        -0.157544       -0.771876      0.00150794    -0.000113236      0.00245603     0.000572563      0.00512039       0.0715012
                     0.00149727    -0.000137526       0.0763561       -0.884513    -0.000800526     -0.00394967    -0.000218675     0.000185832
                     0.00249166     0.000619396     -0.00081955     -0.00401322       -0.021261        0.894804      0.00371566     -0.00519451
                     0.00433382       0.0720255    -0.000200982     0.000218864      0.00366545     -0.00518754        0.704651        0.197396
      3.46e+09        -0.254298       -0.770544      0.00152791    -0.000188118      0.00244217     0.000386156        0.010532       0.0491693
                     0.00150408    -0.000217451       0.0250703       -0.887457     -0.00103517     -0.00390826    -0.000209732     0.000271336
                     0.00247313     0.000415103     -0.00106258     -0.00396894       0.0543701        0.888058      0.00285318     -0.00562704
                      0.0101606       0.0496674    -0.000183227     0.000291482      0.00280255     -0.00560597        0.757866       0.0678657
      3.48e+09        -0.347942        -0.75369      0.00155171    -0.000281667      0.00244617     0.000166334       0.0103434       0.0330892
                     0.00151271    -0.000309549      -0.0266009       -0.888686     -0.00127455     -0.00385757    -0.000179819     0.000354487
                     0.00246706     0.000184055     -0.00130944     -0.00391388        0.127627        0.875818      0.00202659     -0.00587526
                      0.0102379       0.0334385    -0.000150833      0.00036019      0.00197945     -0.00584089        0.781396      -0.0595618
       3.5e+09        -0.436789       -0.723065       0.0015661    -0.000393956      0.00243455    -8.45046e-05      0.00753386       0.0221164
                     0.00151269    -0.000414107      -0.0790844       -0.887695     -0.00151963     -0.00379407    -0.000131466     0.000432027
                     0.00244312    -7.07302e-05     -0.00156067     -0.00384493        0.198681        0.858902      0.00125089      -0.0059864
                     0.00755583       0.0222756    -0.000105925      0.00042394      0.00121037     -0.00594018        0.781593       -0.180654
      3.54e+09        -0.594514       -0.625442      0.00152202      -0.0006437      0.00228697    -0.000622583    -0.000122377       0.0109462
                     0.00144979    -0.000633006       -0.187123       -0.876587     -0.00202539     -0.00361068     1.52523e-05      0.00056499
                     0.00227481    -0.000594403     -0.00207389     -0.00364961        0.335644        0.813062     -0.00014241     -0.00591339
                   -0.000160183       0.0107926      1.8222e-05     0.000538333    -0.000162301     -0.00584891        0.730068       -0.397469
      3.58e+09        -0.712511       -0.486004      0.00135939    -0.000770534      0.00192021     -0.00105386     -0.00618864      0.00862696
                     0.00129339    -0.000715461        -0.29843       -0.846539     -0.00252178     -0.00329976     0.000255855     0.000657348
                     0.00192072    -0.000980985     -0.00257209     -0.00333137         0.47204        0.751964     -0.00132803     -0.00551643
                    -0.00651507      0.00846558     0.000220138     0.000643639     -0.00131639     -0.00544425        0.624916       -0.577394
      3.62e+09        -0.775812       -0.349162      0.00171093    -0.000760097      0.00168638     -0.00113238     -0.00897311      0.00863226
                     0.00169411    -0.000685083       -0.387766       -0.791277     -0.00277569     -0.00294627     0.000569629     0.000455882
                     0.00178619     -0.00109796     -0.00284274      -0.0029751        0.609932        0.643844     -0.00203631     -0.00493748
                    -0.00914798      0.00877529      0.00056878       0.0005041     -0.00199937      -0.0048933        0.480086       -0.690312
      3.66e+09        -0.851736       -0.182498      0.00154836     -0.00162085      0.00146828     -0.00158699      -0.0131232       0.0120108
                     0.00155354      -0.0015524        -0.47696       -0.754513     -0.00324913     -0.00277458     0.000507512     0.000333852
                     0.00150224     -0.00161448     -0.00331731     -0.00277659        0.689564        0.529058     -0.00282123     -0.00463928
                     -0.0133534        0.011901     0.000528293     0.000326429     -0.00279041     -0.00459596         0.36227       -0.777283
       3.7e+09        -0.853854       0.0257417     0.000925735     -0.00191119      0.00101495      -0.0017752      -0.0133665       0.0187268
                    0.000967681     -0.00185397       -0.571654       -0.690375     -0.00372775     -0.00232693      0.00058011     0.000318339
                     0.00102795     -0.00178535     -0.00378758     -0.00231924        0.772394        0.414139     -0.00357705     -0.00402626
                     -0.0137781       0.0187792     0.000575713      0.00030538     -0.00353053     -0.00398381        0.216786        -0.84624
      3.74e+09        -0.773224         0.23596     0.000298108     -0.00183308     0.000690222     -0.00181742     -0.00990293       0.0268301
                    0.000369059     -0.00182421       -0.650613       -0.608633     -0.00408033     -0.00177178     0.000672798     0.000267983
                    0.000706987     -0.00182389     -0.00413682     -0.00176062        0.840499        0.277587     -0.00412128     -0.00329349
                     -0.0102671       0.0271399     0.000661224     0.000268597     -0.00405815      -0.0032617       0.0633137       -0.876619
      3.78e+09        -0.577942        0.409903    -0.000197984     -0.00130524     0.000515406     -0.00197561    -0.000476631       0.0360302
                   -0.000151584     -0.00137556       -0.709978        -0.51954     -0.00429337     -0.00117612     0.000769214     0.000225745
                     0.00053347     -0.00199595      -0.0043536     -0.00116157        0.879682        0.123313     -0.00444068     -0.00254369
                   -0.000587872       0.0364967     0.000769841      0.00023603     -0.00436327      -0.0025296      -0.0828429       -0.870272
      3.82e+09        -0.251354         0.40288     3.40115e-05    -0.000269813      9.7672e-05     -0.00255733       0.0208809       0.0405222
                   -4.83894e-05    -0.000368688       -0.754541       -0.437087      -0.0043856    -0.000642404      0.00095851     0.000204722
                    9.32741e-05     -0.00259744     -0.00445581    -0.000614546        0.876756      -0.0327526     -0.00457309     -0.00195183
                      0.0210786       0.0408593     0.000977814     0.000198995     -0.00448567     -0.00196405       -0.204811       -0.838366
      3.86e+09        -0.124815       0.0370351      0.00172725    -0.000117142     -0.00146649     -0.00276991       0.0453363       0.0193484
                     0.00156688    -3.58764e-05       -0.810925       -0.356954     -0.00455884    -0.000188096       0.0013132    -3.93959e-05
                    -0.00151293     -0.00279349     -0.00462575    -0.000130451        0.847996        -0.15776      -0.0049037     -0.00157564
                      0.0454908       0.0193907      0.00131104    -7.66026e-05     -0.00482083     -0.00162262       -0.308513       -0.814457
       3.9e+09        -0.455527       -0.109281      0.00246885     -0.00193254     -0.00258037     -0.00128899       0.0379133      -0.0100788
                     0.00249501      -0.0017607       -0.859896       -0.240958     -0.00475837     0.000500872      0.00137811    -0.000589955
                    -0.00262796     -0.00127201     -0.00480216     0.000575255        0.830889       -0.280734     -0.00541973    -0.000796784
                      0.0379355      -0.0099618      0.00134283    -0.000607207     -0.00535813    -0.000869044       -0.435385       -0.778975
      3.94e+09         -0.66153       0.0896665      0.00170015      -0.0033241      -0.0023437     4.71967e-05       0.0209701      -0.0184876
                     0.00183513     -0.00327325       -0.870759       -0.121616     -0.00469705      0.00126594      0.00115123      -0.0009935
                    -0.00237533     8.18053e-05     -0.00472333      0.00134676         0.78515       -0.418523     -0.00554476     0.000194318
                      0.0211267      -0.0183272      0.00112292    -0.000985494     -0.00550625     0.000106932       -0.549245       -0.703015
      3.98e+09        -0.682017        0.324437      0.00063868     -0.00403073     -0.00181526     0.000765254      0.00975497      -0.0177045
                    0.000744185     -0.00410154       -0.866293      -0.0165112     -0.00448764      0.00193405     0.000872312     -0.00124099
                    -0.00183313     0.000809988      -0.0044959      0.00202335        0.706365       -0.539161     -0.00542017      0.00106013
                      0.0100201      -0.0176835     0.000859388      -0.0012292     -0.00540693      0.00096246       -0.633514        -0.61436
      4.02e+09         -0.60526         0.52465    -0.000483714      -0.0043616     -0.00134928      0.00119021      0.00304926      -0.0144271
                   -0.000466808     -0.00448616       -0.858753       0.0828459     -0.00422701      0.00252516     0.000585207     -0.00140149
                    -0.00134926       0.0012424     -0.00421002      0.00262065        0.612417        -0.63324      -0.0052159      0.00180177
                     0.00328571        -0.01459     0.000579308     -0.00139654      -0.0052309      0.00170004       -0.698875        -0.52711
      4.06e+09        -0.468539        0.682644     -0.00165749     -0.00437998    -0.000943552      0.00153791    -0.000625341      -0.0104395
                    -0.00172975     -0.00449154       -0.847524        0.186033     -0.00393584      0.00308745     0.000291599     -0.00149864
                   -0.000919809      0.00158906      -0.0038874      0.00318014         0.51569        -0.70516     -0.00498911      0.00248645
                   -0.000521686      -0.0107241     0.000283628     -0.00150015     -0.00503356      0.00238851       -0.755704       -0.441603
       4.1e+09        -0.289347        0.791998     -0.00282652     -0.00406337    -0.000507014      0.00188613     -0.00198963     -0.00654239
                    -0.00295621     -0.00411903       -0.825466        0.297575     -0.00359239      0.00365042    -6.65201e-06     -0.00153754
                   -0.000459175       0.0019226     -0.00351173      0.00372758        0.420397       -0.762659     -0.00473107      0.00317023
                    -0.00205008     -0.00684988    -2.07187e-05     -0.00153972     -0.00480354      0.00308421       -0.808524       -0.352381
      4.14e+09       -0.0837899        0.845051     -0.00388737      -0.0034094      4.4557e-05      0.00221218     -0.00160034      -0.0033276
                    -0.00403271     -0.00339477       -0.784052        0.415455     -0.00316073      0.00421169     -0.00030333     -0.00151773
                    0.000108512      0.00222039     -0.00305345      0.00426088        0.324933       -0.811204     -0.00440126      0.00387512
                    -0.00179519     -0.00357555    -0.000321896     -0.00151455     -0.00449791      0.00380832       -0.855692       -0.253701
      4.18e+09         0.129597        0.837578       -0.004731     -0.00246622     0.000744343      0.00243978    -5.54109e-05     -0.00118767
                    -0.00485572     -0.00238984       -0.717408        0.532429      -0.0026141      0.00474063    -0.000588069     -0.00143863
                    0.000809627      0.00241139     -0.00249071      0.00475291        0.225756       -0.851988     -0.00395654      0.00458614
                    -0.00032505      -0.0013334    -0.000606039     -0.00142702     -0.00407164      0.00454429       -0.891645       -0.143013
      4.22e+09         0.331596        0.771582     -0.00527615     -0.00132475      0.00156582      0.00248582      0.00203656    -0.000271434
                    -0.00535717     -0.00120847       -0.624345        0.638857     -0.00194807      0.00519223    -0.000847816     -0.00130278
                     0.00161483      0.00242044     -0.00182156      0.00516367        0.120551       -0.882753     -0.00337127      0.00526213
                     0.00175275    -0.000311646    -0.000859336     -0.00128345      -0.0034979        0.005249       -0.909983      -0.0220393
      4.26e+09         0.505311        0.655493     -0.00548543    -9.72513e-05      0.00243811      0.00229398      0.00414149    -0.000504362
                    -0.00551415     3.29939e-05       -0.508429        0.725592     -0.00118254      0.00552267     -0.00106928     -0.00111741
                     0.00245475      0.00219912     -0.00106586      0.00545448      0.00966142       -0.899834     -0.00264578      0.00585211
                     0.00388772    -0.000462384     -0.00106988     -0.00109416      -0.0027765       0.0058693       -0.905968        0.104025
       4.3e+09         0.638617         0.50254     -0.00536673      0.00110521      0.00327134      0.00184992       0.0058632     -0.00165475
                     -0.0053465      0.00122605       -0.376722        0.786059    -0.000355798      0.00570121     -0.00124164    -0.000894366
                     0.00324422      0.00173895    -0.000259912      0.00559878       -0.104034       -0.900108     -0.00180485       0.0063103
                      0.0056615     -0.00156521     -0.00122936     -0.00087262     -0.00193243      0.00635733       -0.877837        0.228202
      4.34e+09         0.725374        0.328218     -0.00496459      0.00219044      0.00398108      0.00118029      0.00696718     -0.00341362
                    -0.00490657      0.00228471        -0.23796        0.817253     0.000485368      0.00571596     -0.00135864    -0.000648529
                     0.00390513      0.00106948     0.000552582      0.00558744       -0.216137       -0.882191     -0.00088994      0.00660624
                     0.00681976      -0.0033102     -0.00133411    -0.000633855     -0.00100791       0.0066808        -0.82697        0.343526
      4.38e+09         0.765289        0.147682     -0.00434631      0.00309519      0.00450519     0.000341157      0.00736943     -0.00546603
                     -0.0042653      0.00315306       -0.100751        0.819698      0.00129543      0.00557381     -0.00141933    -0.000395455
                     0.00438161     0.000246771      0.00132955      0.00542855       -0.321976       -0.846757     5.09238e-05      0.00672878
                     0.00726489     -0.00537417     -0.00138532     -0.00039246    -5.22083e-05       0.0068272       -0.757208        0.444398
      4.42e+09         0.762715      -0.0262651     -0.00358714      0.00378746      0.00481102    -0.000597579      0.00710228     -0.00754148
                    -0.00349824      0.00380582       0.0277519        0.796672      0.00203741      0.00529607     -0.00142764    -0.000149169
                     0.00464615    -0.000661574      0.00203719      0.00514331         -0.4176       -0.796201     0.000972255       0.0066847
                     0.00702262     -0.00747578     -0.00138819    -0.000160896     0.000887745      0.00680247       -0.673788        0.527299
      4.46e+09         0.724932       -0.184268     -0.00275814       0.0042626      0.00489413     -0.00156652      0.00627159     -0.00943963
                    -0.00267454      0.00424351        0.142531          0.7531      0.00268641      0.00491234     -0.00139093     7.93482e-05
                     0.00469776     -0.00158971      0.00265316      0.00476031       -0.500341       -0.733961      0.00183727      0.00649398
                     0.00619783     -0.00940454     -0.00135058     5.15571e-05      0.00177372       0.0066263       -0.582261        0.590864
       4.5e+09         0.660424       -0.320611     -0.00191849      0.00453599      0.00477182     -0.00250657      0.00501671      -0.0110349
                    -0.00185039      0.00448486        0.240789        0.694483      0.00322992      0.00445456     -0.00131839     0.000282756
                     0.00455541     -0.00248251       0.0031667      0.00430995       -0.568929        -0.66381       0.0026206        0.006184
                     0.00493255      -0.0110271     -0.00128149     0.000239069      0.00257902      0.00632616       -0.487686        0.635527
