! .MODEL  SMODEL ch_model S  TSTONEFILE=.\ch_model_fit.s2p  TYPE=SFMAX=         3e+11
! The above .MODEL line can be used for the S element in the netlist.
!
!
# Hz S RI R    50
         1e+09         0.051946       -0.187949        0.867922       -0.218367        0.867922       -0.218367       0.0552299       -0.132628
       1.1e+09        0.0440774       -0.205149          0.8597        -0.23856          0.8597        -0.23856       0.0473714        -0.14419
       1.2e+09        0.0355783       -0.221919        0.850838       -0.258314        0.850838       -0.258314       0.0387892        -0.15528
       1.3e+09        0.0264756       -0.238228        0.841389        -0.27762        0.841389        -0.27762       0.0293769        -0.16578
       1.4e+09        0.0167988       -0.254036        0.831417       -0.296541        0.831417       -0.296541       0.0189294        -0.17516
       1.5e+09       0.00663323       -0.269293        0.820663       -0.315287        0.820663       -0.315287      0.00903592       -0.181865
       1.6e+09       -0.0039733       -0.284115        0.808902       -0.333013        0.808902       -0.333013      0.00173272       -0.190488
       1.7e+09       -0.0151168       -0.298418        0.797057       -0.349954        0.797057       -0.349954     -0.00822013       -0.200095
       1.8e+09       -0.0267061       -0.312145        0.784866       -0.366436        0.784866       -0.366436      -0.0192887       -0.208507
       1.9e+09       -0.0386921       -0.325294         0.77226       -0.382389         0.77226       -0.382389      -0.0307937       -0.215992
         2e+09       -0.0510393       -0.337861        0.759263       -0.397771        0.759263       -0.397771       -0.042601       -0.222713
       2.1e+09       -0.0637135       -0.349843        0.745908       -0.412562        0.745908       -0.412562      -0.0546599       -0.228734
       2.2e+09       -0.0766809       -0.361234        0.732231       -0.426751        0.732231       -0.426751       -0.066934       -0.234082
       2.3e+09       -0.0899085       -0.372032        0.718266       -0.440333        0.718266       -0.440333      -0.0793888       -0.238773
       2.4e+09        -0.103364       -0.382238        0.704049       -0.453305        0.704049       -0.453305      -0.0919907       -0.242815
       2.5e+09        -0.117015       -0.391852        0.689612        -0.46567        0.689612        -0.46567       -0.104706       -0.246217
       2.6e+09        -0.130832       -0.400879        0.674987       -0.477428        0.674987       -0.477428       -0.117504       -0.248987
       2.7e+09        -0.144784       -0.409323        0.660204       -0.488585        0.660204       -0.488585       -0.130351       -0.251133
       2.8e+09        -0.158843       -0.417191        0.645294       -0.499147        0.645294       -0.499147       -0.143217       -0.252666
       2.9e+09        -0.172982       -0.424492        0.630284       -0.509123        0.630284       -0.509123       -0.156073       -0.253597
         3e+09        -0.187175       -0.431234        0.615201       -0.518522        0.615201       -0.518522        -0.16889       -0.253938
       3.1e+09        -0.201397       -0.437428        0.600071       -0.527353        0.600071       -0.527353       -0.181643       -0.253702
       3.2e+09        -0.215625       -0.443087        0.584918       -0.535629        0.584918       -0.535629       -0.194305       -0.252903
       3.3e+09        -0.229837       -0.448221        0.569764       -0.543363        0.569764       -0.543363       -0.206854       -0.251558
       3.4e+09        -0.244013       -0.452845         0.55463       -0.550567         0.55463       -0.550567       -0.219267       -0.249681
       3.5e+09        -0.258132       -0.456972        0.539537       -0.557256        0.539537       -0.557256       -0.231522        -0.24729
       3.6e+09        -0.272178       -0.460616        0.524502       -0.563444        0.524502       -0.563444       -0.243602       -0.244401
       3.7e+09        -0.286133       -0.463793        0.509544       -0.569146        0.509544       -0.569146       -0.255488       -0.241032
       3.8e+09        -0.299983       -0.466516        0.494677       -0.574377        0.494677       -0.574377       -0.267164       -0.237201
       3.9e+09        -0.313714       -0.468803        0.479916       -0.579153        0.479916       -0.579153       -0.278614       -0.232926
         4e+09        -0.327311       -0.470667        0.465275        -0.58349        0.465275        -0.58349       -0.289826       -0.228225
       4.1e+09        -0.340765       -0.472125        0.450765       -0.587402        0.450765       -0.587402       -0.300787       -0.223117
       4.2e+09        -0.354065       -0.473192        0.436397       -0.590907        0.436397       -0.590907       -0.311485       -0.217619
       4.3e+09          -0.3672       -0.473883        0.422181        -0.59402        0.422181        -0.59402       -0.321912        -0.21175
       4.4e+09        -0.380163       -0.474214        0.408127       -0.596755        0.408127       -0.596755       -0.332058       -0.205528
       4.5e+09        -0.392946         -0.4742         0.39424       -0.599129         0.39424       -0.599129       -0.341915       -0.198971
       4.6e+09        -0.405542       -0.473855         0.38053       -0.601156         0.38053       -0.601156       -0.351478       -0.192096
       4.7e+09        -0.417946       -0.473194           0.367       -0.602852           0.367       -0.602852        -0.36074        -0.18492
       4.8e+09        -0.430153       -0.472232        0.353657       -0.604231        0.353657       -0.604231       -0.369696        -0.17746
       4.9e+09         -0.44216       -0.470983        0.340505       -0.605308        0.340505       -0.605308       -0.378343       -0.169733
         5e+09        -0.453961        -0.46946        0.327548       -0.606095        0.327548       -0.606095       -0.386678       -0.161756
       5.1e+09        -0.465555       -0.467677        0.314787       -0.606607        0.314787       -0.606607       -0.394698       -0.153542
       5.2e+09         -0.47694       -0.465646        0.302227       -0.606857        0.302227       -0.606857       -0.402402       -0.145109
       5.3e+09        -0.488113        -0.46338        0.289867       -0.606858        0.289867       -0.606858       -0.409788        -0.13647
       5.4e+09        -0.499075       -0.460892        0.277711       -0.606621        0.277711       -0.606621       -0.416857       -0.127641
       5.5e+09        -0.509823       -0.458193        0.265757       -0.606159        0.265757       -0.606159       -0.423608       -0.118634
       5.6e+09        -0.520359       -0.455294        0.254007       -0.605484        0.254007       -0.605484       -0.430041       -0.109465
       5.7e+09        -0.530682       -0.452206        0.242461       -0.604606        0.242461       -0.604606       -0.436159       -0.100144
       5.8e+09        -0.540793        -0.44894        0.231117       -0.603536        0.231117       -0.603536       -0.441961      -0.0906859
       5.9e+09        -0.550694       -0.445507        0.219975       -0.602285        0.219975       -0.602285       -0.447452      -0.0811017
         6e+09        -0.560384       -0.441915        0.209035       -0.600862        0.209035       -0.600862       -0.452631      -0.0714033
       6.1e+09        -0.569866       -0.438174        0.198293       -0.599276        0.198293       -0.599276       -0.457503      -0.0616019
       6.2e+09        -0.579142       -0.434293        0.187749       -0.597538        0.187749       -0.597538       -0.462069      -0.0517081
       6.3e+09        -0.588213       -0.430281        0.177401       -0.595655        0.177401       -0.595655       -0.466333      -0.0417323
       6.4e+09        -0.597082       -0.426145        0.167246       -0.593636        0.167246       -0.593636       -0.470298      -0.0316845
       6.5e+09        -0.605752       -0.421895        0.157283       -0.591488        0.157283       -0.591488       -0.473967      -0.0215739
       6.6e+09        -0.614224       -0.417537        0.147508        -0.58922        0.147508        -0.58922       -0.477345      -0.0114098
       6.7e+09        -0.622501       -0.413078         0.13792       -0.586839         0.13792       -0.586839       -0.480435     -0.00120073
       6.8e+09        -0.630586       -0.408525        0.128515       -0.584351        0.128515       -0.584351        -0.48324      0.00904492
       6.9e+09        -0.638482       -0.403885         0.11929       -0.581764         0.11929       -0.581764       -0.485765       0.0193192
         7e+09        -0.646192       -0.399164        0.110244       -0.579083        0.110244       -0.579083       -0.488014       0.0296146
       7.1e+09        -0.653718       -0.394368        0.101372       -0.576314        0.101372       -0.576314       -0.489992       0.0399239
       7.2e+09        -0.661065       -0.389503       0.0926727       -0.573463       0.0926727       -0.573463       -0.491702       0.0502401
       7.3e+09        -0.668234       -0.384574       0.0841418       -0.570536       0.0841418       -0.570536       -0.493148       0.0605567
       7.4e+09         -0.67523       -0.379585       0.0757767       -0.567537       0.0757767       -0.567537       -0.494336       0.0708674
       7.5e+09        -0.682054       -0.374542       0.0675742       -0.564472       0.0675742       -0.564472       -0.495269       0.0811662
       7.6e+09        -0.688711        -0.36945       0.0595313       -0.561344       0.0595313       -0.561344       -0.495953       0.0914474
       7.7e+09        -0.695204       -0.364313       0.0516448        -0.55816       0.0516448        -0.55816        -0.49639        0.101706
       7.8e+09        -0.701535       -0.359134       0.0439116       -0.554921       0.0439116       -0.554921       -0.496587        0.111936
       7.9e+09        -0.707708       -0.353919       0.0363286       -0.551634       0.0363286       -0.551634       -0.496546        0.122133
         8e+09        -0.713727        -0.34867       0.0288927         -0.5483       0.0288927         -0.5483       -0.496274        0.132292
       8.1e+09        -0.719593       -0.343391       0.0216009       -0.544925       0.0216009       -0.544925       -0.495773        0.142409
       8.2e+09         -0.72531       -0.338085       0.0144502        -0.54151       0.0144502        -0.54151       -0.495049        0.152479
       8.3e+09        -0.730882       -0.332756      0.00743746        -0.53806      0.00743746        -0.53806       -0.494105          0.1625
       8.4e+09        -0.736311       -0.327407     0.000559779       -0.534577     0.000559779       -0.534577       -0.492946        0.172466
       8.5e+09          -0.7416       -0.322039     -0.00618578       -0.531064     -0.00618578       -0.531064       -0.491577        0.182374
       8.6e+09        -0.746752       -0.316657      -0.0128021       -0.527523      -0.0128021       -0.527523       -0.490001        0.192221
       8.7e+09        -0.751771       -0.311263      -0.0192921       -0.523958      -0.0192921       -0.523958       -0.488223        0.202003
       8.8e+09        -0.756658       -0.305858      -0.0256585       -0.520371      -0.0256585       -0.520371       -0.486247        0.211718
       8.9e+09        -0.761417       -0.300446      -0.0319041       -0.516763      -0.0319041       -0.516763       -0.484077        0.221362
         9e+09        -0.766051       -0.295028      -0.0380316       -0.513137      -0.0380316       -0.513137       -0.481716        0.230934
       9.1e+09        -0.770562       -0.289606      -0.0440436       -0.509496      -0.0440436       -0.509496        -0.47917        0.240429
       9.2e+09        -0.774954       -0.284183      -0.0499429        -0.50584      -0.0499429        -0.50584       -0.476441        0.249846
       9.3e+09        -0.779227       -0.278759      -0.0557319       -0.502171      -0.0557319       -0.502171       -0.473535        0.259182
       9.4e+09        -0.783386       -0.273337      -0.0614132       -0.498492      -0.0614132       -0.498492       -0.470454        0.268436
       9.5e+09        -0.787433       -0.267919      -0.0669892       -0.494804      -0.0669892       -0.494804       -0.467202        0.277604
       9.6e+09         -0.79137       -0.262504      -0.0724623       -0.491108      -0.0724623       -0.491108       -0.463783        0.286686
       9.7e+09          -0.7952       -0.257097      -0.0778348       -0.487405      -0.0778348       -0.487405       -0.460202        0.295678
       9.8e+09        -0.798925       -0.251696      -0.0831092       -0.483697      -0.0831092       -0.483697        -0.45646        0.304581
       9.9e+09        -0.802547       -0.246304      -0.0882876       -0.479985      -0.0882876       -0.479985       -0.452563        0.313391
         1e+10        -0.806069       -0.240922      -0.0933723       -0.476271      -0.0933723       -0.476271       -0.448513        0.322107
