!Generated from: BroadbandSPICE
! 1
! 2
! 3
! 4
!
!BroadbandSPICE Version: 24.1.0.10141.541387   000
!Computer Host Name: RD78ECE-EMCLAB
!
!TouchstoneFormatFlag = 1
!Agilent Technologies,E5071B,JP1KK00288,A.09.10
!Date: Thu Apr 05 13:49:22 2012
!Data & Calibration Information:
!Freq	S11:SOLT4(ON)	S12:SOLT4(ON)	S13:SOLT4(ON)	S14:SOLT4(ON)
!	S21:SOLT4(ON)	S22:SOLT4(ON)	S23:SOLT4(ON)	S24:SOLT4(ON)
!	S31:SOLT4(ON)	S32:SOLT4(ON)	S33:SOLT4(ON)	S34:SOLT4(ON)
!	S41:SOLT4(ON)	S42:SOLT4(ON)	S43:SOLT4(ON)	S44:SOLT4(ON)
!
#	Hz	S	RI	R	75
500000000	-0.886764300015507	0.0962067649569383	-0.001276748107244	-0.00108458213031861	0.00118037733502314	0.00204913531319253	7.07567741039181e-05	0.000324698685854378
			-0.000526087824256214	-0.000342222483313456	0.133187482665466	0.975017420224241	-0.00590771551916768	-0.00234913709649612	-2.96498931761947e-06	1.67521861401576e-05
			0.000628652105161605	0.000931000004389798	-0.00577057217988091	-0.00193264168778773	-0.642527883229654	0.688836571683376	-0.00121518765741609	-0.00249516360689907
			0.000299361984808873	0.000289973961237219	-3.55184780025475e-05	-3.50188715316157e-05	-0.00148064712749902	-0.00328872350554131	-0.942205002396978	-0.105786746424517
515000000	-0.881926480652994	0.185839119088297	-0.00099765548945175	-0.000716074668500734	0.00143711893578085	0.00177296529018408	0.000100744721134314	0.000323410796384236
			-0.000261029715784704	-0.000120070964805492	0.206022006233838	0.960818859595985	-0.00629100764572134	-0.00175346697458616	3.38496840989838e-06	2.23737887200559e-05
			0.000731955989614865	0.000879705697385386	-0.00608932022305131	-0.00140734425483428	-0.560089858838296	0.760647656770777	-0.00143092937517165	-0.00245617663142233
			0.000315291717050128	0.000258573742261941	-3.37102119287807e-05	-2.00138281921938e-05	-0.00173937632559119	-0.00317730203144109	-0.94921973133791	-0.0350348119375354
530000000	-0.86730259911712	0.276247213004947	-0.00063428681839477	-0.000393483971050949	0.00163959843468399	0.00145559513699277	0.000130417108124399	0.000318235353123062
			6.82677745387642e-05	6.58299370057563e-05	0.278721208112238	0.94061937162411	-0.00662467935599656	-0.00109482810497734	1.05533148720671e-05	2.7187231497596e-05
			0.000835875734705555	0.000818800190811417	-0.00637650241787952	-0.000830860807301855	-0.46913700446355	0.822439855949063	-0.00165085316102127	-0.00239817345692107
			0.000325380929538495	0.000225326705951078	-2.93486357990582e-05	-5.26564992757794e-06	-0.0019925463260843	-0.00304389005423869	-0.950925988405963	0.0353392853520162
545000000	-0.84253764973115	0.366443380925438	-0.000190478844669037	-0.000133280815734751	0.00177698461712947	0.00110636892610954	0.000159242538915614	0.000309164856846022
			0.00045982193064562	0.000201677651786964	0.350950135854952	0.914210169258148	-0.00689930304179874	-0.000374941284631323	1.84635749780096e-05	3.10851122806662e-05
			0.000939956401103546	0.000747609968178299	-0.006626038236753	-0.000201299232784168	-0.370836447518365	0.873252192481765	-0.00187364202553163	-0.00231978648203861
			0.000329214069772887	0.000191356072291039	-2.23931916155731e-05	8.83263909339324e-06	-0.00223847534982186	-0.00288888131667699	-0.947484003876182	0.104964951558927
560000000	-0.807341981465092	0.455368814566896	0.000326675022205099	4.73122329176789e-05	0.00183740354432045	0.000737445012090093	0.00018667075949776	0.000296257270640234
			0.000908710785195618	0.00027271831325736	0.422341032172066	0.881347982291881	-0.00710443655885868	0.000403237999791275	2.70271291089344e-05	3.39632231773144e-05
			0.00104367696140453	0.000665361608081013	-0.00683085259969328	0.000483148925755623	-0.266449884500346	0.912257696154058	-0.00209776759315907	-0.00221962142548211
			0.000326585524010173	0.000157915603954246	-1.28507583157995e-05	2.18560520559908e-05	-0.00247567781060197	-0.00271297470146207	-0.93907357062622	0.173499687291514
575000000	-0.76149612125525	0.541889469704288	0.000906124471175922	0.000130802714981571	0.00180631556903251	0.000365682478233705	0.000212136748421275	0.00027964206212009
			0.00140638859794841	0.000263714519416767	0.492479578724503	0.841750070280029	-0.00722831270642513	0.00123473826941569	3.614256821987e-05	3.57214396362305e-05
			0.00114642008904766	0.000571155617260665	-0.00698267103103581	0.0012241038257121	-0.157325349575507	0.938783384326672	-0.0023214537102169	-0.00209626741096186
			0.00031753998914478	0.000126358904070756	-7.8546335975367e-07	3.334780920692e-05	-0.00270312493082448	-0.0025173174754812	-0.925890100784736	0.240629036854898
590000000	-0.704857203045081	0.624789462234398	0.00153207722048227	0.000100180920937721	0.00166312648809156	1.81001612768166e-05	0.000235065521949109	0.000259527317692416
			0.00193992996766719	0.000159669726493875	0.560887342805922	0.795089536672035	-0.00725749955307572	0.00211074935829156	4.56950615846177e-05	3.62649098890697e-05
			0.00124742813314198	0.000463937763628939	-0.00707177343400658	0.00202284256446796	-0.0448820449919592	0.952358917249714	-0.00254263342339249	-0.00194831440701819
			0.000302412519850505	9.80986743007042e-05	1.3669082710759e-05	4.28207931764691e-05	-0.00292095120448741	-0.00230374417296737	-0.908140869843837	0.306066070673928
605000000	-0.637368106364039	0.702761607500981	0.00218316335161023	-5.99490842000576e-05	0.00137519114803512	-0.000250221779706915	0.000254878018115988	0.000236208155760906
			0.00249123455128524	-5.30913439090938e-05	0.626999187853826	0.740991468975721	-0.00717726985423353	0.00301367602462938	5.55559001470745e-05	3.55056239761133e-05
			0.00134574034051476	0.000342469540667356	-0.00708669996710745	0.00288007316686301	0.0694563389475505	0.952844848038378	-0.00275889929504417	-0.0017743807531478
			0.000281867126027633	7.45539785551511e-05	3.02946416995986e-05	4.97610847521183e-05	-0.00313261157178206	-0.00207494004843478	-0.88604147929942	0.369550423329709
620000000	-0.559070755695223	0.774394863094243	0.00283162348004007	-0.000361719580234107	0.000901518048870458	-0.000287887400796312	0.000270998498355509	0.000210076664810207
			0.0030362618264046	-0.000385355539358868	0.690134010979154	0.679030826376162	-0.00697936536185255	0.00390185739476591	6.55825021523127e-05	3.33644152316062e-05
			0.00144010472642677	0.000205300944462276	-0.00701390328441287	0.00379560718631932	0.184649797740652	0.940766051932551	-0.00296744762531102	-0.00157315402286476
			0.000256932138385719	5.70829280326531e-05	4.87697805313318e-05	5.3634747773613e-05	-0.00335229857000525	-0.00183203996007373	-0.859812568074843	0.430846904902292
635000000	-0.47012548396414	0.838158617939098	0.00344266296054295	-0.000811653794088917	0.000421033829545702	0.00039228822604959	0.000282863941904819	0.000181633610475681
			0.00354442902113976	-0.000842801856710185	0.749456661001319	0.608733643199424	-0.00673768320886558	0.00467917651926303	7.56193731693895e-05	2.97733681569874e-05
			0.00152885588208217	5.07513966612494e-05	-0.00683734417656354	0.00476788791707315	0.302497067527933	0.917287985241676	-0.00316501806367553	-0.0013434488201691
			0.000229029442036349	4.68974559803568e-05	6.86474139276914e-05	5.38995720983171e-05	-0.00362449709949677	-0.0015423884400336	-0.829676803621318	0.489743700754861
650000000	-0.370838958827468	0.89238408122473	0.00397422528631818	-0.00140741621553055	0.00178642160003595	0.00155792157494567	0.000289935843903169	0.000151502255522414
			0.00397841021243921	-0.00142293315853497	0.803928262975279	0.529584171176916	-0.00682375631975472	0.00558067999880351	8.55008625931018e-05	2.46784139592716e-05
			0.00160974748021244	-0.000123090875785883	-0.00653803430012275	0.00579331290302339	0.429201708633298	0.870973787122102	-0.00334783133301106	-0.00108428494375287
			0.000199992850142177	4.49560597163729e-05	8.93281831961105e-05	5.00242563734333e-05	-0.00386430031938617	-0.00101115580358953	-0.795856182367275	0.546050177516342
665000000	-0.261703956021116	0.935243552366346	0.00437761443144318	-0.00213343982153805	0.00307499587984542	-7.10746388245011e-05	0.000291714534558554	0.00012044499007479
			0.00429474213316701	-0.00211095209112842	0.85224146060303	0.441042300294419	-0.00644844939667721	0.00712775175141506	9.50571792500218e-05	1.80414531301834e-05
			0.00167972558323509	-0.000318333226074598	-0.00609354362442253	0.00686526364638316	0.535166337287038	0.795832252334847	-0.00351152919403299	-0.000794987998884465
			0.000172067986148453	5.1829738517432e-05	0.000110029882175763	4.15185998174249e-05	-0.00376434391177874	-0.00055106342869573	-0.758569657059514	0.599594325458622
680000000	-0.143455290241677	0.964729246858001	0.00459966751936282	-0.0029552627043372	0.00259711645938249	-0.00125640751384265	0.000287755351668417	8.93845380983901e-05
			0.00444590060350369	-0.00287442221146547	0.892736408812601	0.342578385970254	-0.00554790076614324	0.00840506432120169	0.000104126293587336	9.84033146118933e-06
			0.00173462692747741	-0.000537176668478577	-0.00547751759963493	0.00797271985338562	0.627469365254747	0.71771952870904	-0.00365112163928115	-0.000475310572861098
			0.000147881540467696	6.75362583397135e-05	0.000129754174756441	2.79797612390928e-05	-0.00372805377986435	-0.000254685155172019	-0.718031062127018	0.650219896289823
695000000	-0.0171475191952837	0.978634860043373	0.00458757722173546	-0.00381259943407107	0.00198687070039862	-0.00177691172857053	0.00027768417510495	5.94345592201881e-05
			0.00438489078002505	-0.00365673819820822	0.923293039640304	0.233737113832875	-0.00448711853381123	0.00950953453574433	0.000112576709892103	6.25765611194859e-08
			0.00176878726949836	-0.000781697679132292	-0.00465930078988406	0.00909828834959073	0.71338972589109	0.629399664880334	-0.00376094432337463	-0.000125562423079564
			0.000130360956411847	9.13391753618284e-05	0.000147253885766577	9.16158546776885e-06	-0.00372741523805116	6.01925451204229e-05	-0.674447166277968	0.697783348014074
710000000	0.115738393249008	0.974545576631267	0.00429800046398375	-0.00461166235600061	0.00144962379329969	-0.00201727780206508	0.000261205796008199	3.19532183676932e-05
			0.00407390699081433	-0.00436989560908891	0.941195985159644	0.114249231443361	-0.00324845762194107	0.0105181669945189	0.000120351303927433	-1.1317444293979e-05
			0.00177455342711933	-0.00105343226290206	-0.00360385897659166	0.0102154187812445	0.789632827628305	0.528717486350277	-0.0038346171664854	0.000253284626531104
			0.00012257562847986	0.000121512434459245	0.000161007975417848	-1.49237026225242e-05	-0.00371095357842352	0.00039950292806468	-0.628015273391037	0.74215078427131
725000000	0.253150593561739	0.949846427644674	0.00371269946509941	-0.00521831990482312	0.000986373727084129	-0.00210411673166488	0.000238089856480939	8.65979617165752e-06
			0.00349920023096857	-0.00488807407905006	0.942972357061464	-0.0157787519265544	-0.00179542163267454	0.0114199372821446	0.000127555151677153	-2.44063731689751e-05
			0.00174171908411195	-0.00135263296888273	-0.00227236321170184	0.0112845186805613	0.853274584739089	0.416322751799953	-0.00386494833049793	0.000659607066118846
			0.000127456844388181	0.000155082063907	0.000169218237050134	-4.3859992643621e-05	-0.00366242655243685	0.000753555134974114	-0.578918590060778	0.783195112661623
740000000	0.392273908713144	0.901765759492403	0.00286333701228061	-0.00545581431902013	0.000596496951730906	-0.00208642423197796	0.000208101785469393	-8.05621960572878e-06
			0.00269465145310237	-0.00504559088492931	0.924213153809037	-0.155549826505744	-0.000100582492910824	0.0121746845940031	0.000134644545749284	-3.95943598233265e-05
			0.00165696973979947	-0.00167700183511613	-0.000624100131243766	0.0122476510427099	0.901869753995888	0.293702466248718	-0.0038435495776286	0.00109149449306783
			0.000147336304788571	0.000187579508996246	0.00016985382895211	-7.66261044274793e-05	-0.00357517876909243	0.00111400663033029	-0.527313692477433	0.820793187330825
755000000	0.529279798636141	0.827481535520951	0.00186726525328831	-0.00511465483378467	0.000287726869101999	-0.00199425380287957	0.000170835159097289	-1.41464850414476e-05
			0.00177580113858203	-0.00464651712859769	0.879414116630004	-0.303066034652098	0.00185620762064409	0.0127240066625471	0.000142871643636658	-5.82370520696186e-05
			0.00150356716328129	-0.00201962047953926	0.00137911874127503	0.0130215834658835	0.933278332914905	0.162869654312867	-0.00375914556547398	0.00154815238371398
			0.000183226051497226	0.000212886987557841	0.000160789722595161	-0.000111332328027105	-0.00344572217381017	0.00147336153085486	-0.473289733491888	0.854818349439356
770000000	0.659014140050683	0.724334902865865	0.000971839200126971	-0.0039885762782901	7.12598486407342e-05	-0.00185690281964731	0.000125796363777584	8.74337716116891e-08
			0.000981954460361012	-0.00349929459014042	0.80192614233356	-0.454324410281106	0.00408739178670548	0.0129902477386666	0.000155321656243595	-8.55804584488085e-05
			0.00126180163145623	-0.00236574061000144	0.00376407035849875	0.0134893629932973	0.945664220419523	0.0263170118794551	-0.00358903207650371	0.00203426555025061
			0.000233759917458743	0.000223340530517884	0.000140115449407116	-0.000144908130185979	-0.00327224506546582	0.00182419018053941	-0.416709957053555	0.885082957383965
785000000	0.774634038651658	0.590218759440949	0.000591619713060093	-0.00195824208844881	-4.40151883913825e-05	-0.00171006100129569	8.3264779181344e-05	7.160090770051e-05
			0.000711300183966213	-0.00149727473879061	0.684214223580408	-0.602106521692449	0.00659367191345196	0.0128708535938794	0.000174714044224157	-0.000149103890765927
			0.000911303669736246	-0.00268819274668706	0.00652965693583037	0.0134917558436825	0.937574085556516	-0.11300119656271	-0.00323926036304726	0.00256079203433986
			0.000293766229597852	0.000210401721637817	0.000106728783551862	-0.000172807966494548	-0.00305434964737541	0.00215878948122425	-0.356486387440226	0.910607141339121
800000000	0.867241540699366	0.424235468011353	0.00129062766879416	0.000853476390962451	-5.84530092558422e-05	-0.00159909394645299	0.000292439283291875	0.000183625113576429
			0.00150274605142444	0.00123155611274647	0.518821542872772	-0.734297055801216	0.0093541816782744	0.0122287668040176	1.9130921437394e-05	-0.000298749664949693
			0.000437244123429892	-0.00294176844636015	0.00961866899972158	0.0128226489091348	0.908051056970252	-0.251706972297795	-0.00246335410366498	0.00254732904027897
			0.00035263272090621	0.00016642090619772	6.13543541170942e-05	-0.000188922063149841	-0.00279315917515387	0.00246912457943791	-0.296952089277663	0.921484757080343
815000000	0.925631821071795	0.227731332983859	0.00359712129172698	0.00386089738469396	8.42551302778069e-06	-0.0015794339388823	0.000242618201061012	-7.67887943740123e-05
			0.00385466539927378	0.00411101234327239	0.300736659215766	-0.831905113782503	0.0123046971669476	0.0108788546242339	-4.87903705428163e-05	-0.000106494920301321
			-0.000156377448400944	-0.0030588334986699	0.012873947391125	0.0112380599329482	0.856761216774108	-0.386067769623954	-0.00276429630015803	0.00264266263347977
			0.000393132548510483	8.82161797573698e-05	8.06697434488769e-06	-0.00018610601494202	-0.0024915704277147	0.00274695212898788	-0.248182712677177	0.943957885629633
830000000	0.936370300826276	0.00577622650164789	0.00744595954011364	0.00587204892870586	0.000102622143171939	-0.00171126711050794	0.000135824998907432	-7.38508326846819e-05
			0.00767773040775158	0.00597716927806321	0.0321526702914024	-0.86763533458138	0.0152900009418689	0.00857471761766032	-9.59085631592932e-06	-7.8871789829914e-05
			-0.000822952765478396	-0.00295305373571912	0.0159809265162993	0.00849723346064479	0.784124069870816	-0.512096378950528	-0.00250951381171217	0.00311795293773723
			0.000392444547446937	-1.69606139187127e-05	-4.39281641222717e-05	-0.000158066823195444	-0.00215461673973753	0.00298410605071256	-0.187474502218858	0.961228022567592
845000000	0.884448150573039	-0.230978129467786	0.0110365323030174	0.0055589326309767	0.00011370431522492	-0.00203908518416943	8.312429999403e-05	-4.26677387786387e-05
			0.0111647670764229	0.00554194105025936	-0.269615671911355	-0.807234442517592	0.0179648141105154	0.00501965252566739	-3.4846304360856e-07	-7.48720191321361e-05
			-0.00144052352100676	-0.00254662594529651	0.0184171588204082	0.00446194897249123	0.691459464948997	-0.625680447660168	-0.00210194144469792	0.00345044636642319
			0.000328702732962772	-0.000123944046414236	-7.94104463263093e-05	-0.000103502267206644	-0.00178999506432892	0.00317306152226985	-0.126145359282812	0.972014264333941
860000000	0.754469586075401	-0.46419639074092	0.00944313965388529	0.00388719287868362	-0.000143152811475728	-0.00253410039530447	5.40036924975562e-05	-5.43443980983299e-06
			0.00939719445550714	0.00381094300341018	-0.562157030177986	-0.617613275329277	0.0196219274948633	-1.25138238684774e-05	-1.8473376299936e-06	-7.0611205431875e-05
			-0.00179106904836815	-0.00184501720072247	0.0194652733482402	-0.000731283299915614	0.581198312379432	-0.72278160716937	-0.00163752431626459	0.0036769528189571
			0.000197154440533144	-0.000185825152261466	-7.99095048553725e-05	-3.24961728170071e-05	-0.00140873427124593	0.00330822884353817	-0.0649757560057824	0.977914300774238
875000000	0.531563440862	-0.664516609693524	-0.00429163659575519	0.0106868450336304	-0.000881194591841496	-0.00297570406916373	4.18214962382337e-05	3.46163127898855e-05
			-0.00457185536086813	0.0106833350457766	-0.771356463208517	-0.285864318985151	0.0190596173094457	-0.00624276669334763	-6.7092358577734e-06	-6.23387296288633e-05
			-0.00161794593628734	-0.00107150010704523	0.0183742060165471	-0.00647183608232034	0.45717624103493	-0.799902758409511	-0.00114491527515432	0.00380637942481899
			3.54034719286089e-05	-0.000146293915475731	-3.3971371953792e-05	2.8278043450007e-05	-0.00102511487659185	0.00338891382704258	-0.00429670169673591	0.979340936998623
890000000	0.203065870657846	-0.780362461636447	-0.0259848379080131	0.0552770250556006	-0.00209035912573789	-0.00286447563959152	4.60041235125132e-05	7.51306886640248e-05
			-0.0264126321864192	0.0556317880152232	-0.797603500896319	0.150369744048898	0.0150965270867424	-0.012071730890856	-1.06894532742148e-05	-4.86185954781033e-05
			-0.000892191883199879	-0.000789041938377274	0.0146977641097423	-0.0115824072896243	0.324582237270657	-0.855195623331269	-0.000645565170027571	0.00383934746935146
			-5.90241100261232e-05	1.49670275395532e-05	4.4438459953923e-05	4.11267836404698e-05	-0.000652387836623961	0.00342349808422188	0.0555218366937766	0.976493750009634
905000000	-0.213633630591952	-0.704445760749432	0.00679037591676501	0.179111992520582	-0.0031624242628181	-0.00177033267428675	6.96507786806747e-05	0.000112869491029167
			0.00685447105088402	0.179909235267194	-0.548458917355383	0.559418698767853	0.00842823966916153	-0.0147029698869696	-8.85699657679034e-06	-2.78974493215208e-05
			-0.000419901305096189	-0.00164135435024439	0.0087309324488596	-0.0144082876571349	0.188289476190676	-0.889573032716828	-0.000161320193438513	0.00377331977646066
			3.24838662949956e-05	0.000199719980068749	0.000101442640137275	-1.18000019217528e-05	-0.000292115780066664	0.00342658785087678	0.114023065421512	0.969504061775613
920000000	-0.515649897457769	-0.292772535899307	0.26176905528024	0.296350896008388	-0.00324500490914783	-7.65095527637625e-05	0.000125203251028933	0.000138334985864713
			0.262503185273596	0.296389472704577	-0.0744109537533925	0.674649707198525	0.00234963462392655	-0.0130503718450138	1.1807183349461e-05	1.89407319095255e-06
			-0.00201539489726738	-0.00263066288271517	0.00234669427585761	-0.013210796057487	0.0504230006135945	-0.904985369345748	0.000274408845429864	0.00359477359660135
			0.000250432488132821	0.000162970673397158	8.15711725117433e-05	-7.03230453167023e-05	6.67337803742234e-05	0.0034019255517803	0.170343095000203	0.958425814082572
935000000	-0.310816709559524	0.171137359015246	0.633320646282888	0.0271535296623363	-0.00224740732218232	0.00128355738940499	0.000238125577371745	6.3664197186477e-05
			0.633231600747916	0.0266704112038527	0.202373604422804	0.413240291906974	-0.000663901548932533	-0.00932559127736053	0.000110229408051282	2.34427511650905e-06
			-0.00414730919993198	-0.000222940538567125	-0.000649805824906546	-0.00901366024360796	-0.0881743363869774	-0.901263844260578	0.0004931505351708	0.00329317352314176
			0.000213765592956171	-4.83692285232373e-05	6.30583336539664e-05	-5.91366824532848e-05	0.00042727440614421	0.00333762811165538	0.221022105478646	0.945115071789656
940000000	-0.170578867264591	0.218730798905872	0.67415129474383	-0.147791749097863	-0.00177160928438144	0.00155845661443181	0.000222959962419242	-3.88489320907841e-05
			0.673877810719326	-0.148179057061988	0.205175579376616	0.328540885172268	-0.000998653513849842	-0.008107529975079	0.00014845498746655	-6.86936793599037e-05
			-0.00396112535171306	0.00109970805482124	-0.000753348098055453	-0.00779775257397056	-0.134144807505998	-0.895530260889769	0.000440580250942084	0.00329459413124373
			0.000145509398611443	-6.6629554794709e-05	7.38215956689779e-05	-5.86731924225429e-05	0.000545955319596532	0.00330551495171303	0.236833923978822	0.94363898336888
945000000	-0.0442331969587529	0.209485705612429	0.656002856033218	-0.323760122762925	-0.00126455009618528	0.00173545445344427	0.000110161058855302	-8.62137690815293e-05
			0.655600604053143	-0.324068280465516	0.186733677098402	0.271488093057226	-0.00108291457006233	-0.00700888050447077	0.000101288160388159	-0.000154023203495566
			-0.00327166481531494	0.00224641021879262	-0.000646878710747642	-0.0068450748398392	-0.179777686772904	-0.887497541650965	0.000505469293084747	0.00344228962928611
			8.4157220690979e-05	-4.97652294665859e-05	8.62190267831723e-05	-6.80941922082628e-05	0.000662903370453379	0.00326789750118585	0.256780850146465	0.943126451720758
950000000	0.0510678261217687	0.162474386118223	0.589920300934285	-0.4799296181943	-0.000745974006216576	0.00181812022107785	2.8726905482097e-05	-3.12730080314592e-05
			0.589379501737217	-0.480159392818189	0.163877629883341	0.240160663727028	-0.000974445098472154	-0.00606021502941542	2.25908546877544e-05	-0.00016268966698085
			-0.00224731383755241	0.00305158385360059	-0.000455205495262775	-0.00612337847197507	-0.224922616084336	-0.877167550275568	0.00073119127781022	0.00350314682874623
			4.3543489762066e-05	-1.07902912782039e-05	9.41513714380427e-05	-8.63700651633619e-05	0.000777555310634151	0.00322488771718069	0.278665634115483	0.938547788623618
970000000	0.12676816046975	-0.0888464895930039	0.120616132034141	-0.800788184108591	0.0011795895347966	0.00135317955734859	5.19441274041497e-05	0.000115033433756413
			0.119843423801944	-0.800179448784365	0.142737977367631	0.222101167221352	0.000423751732071804	-0.00388623396359978	-5.12801753390382e-05	-6.55536966849609e-05
			0.00216040524951354	0.00281245859275582	0.000388519862141772	-0.00453253126551855	-0.397710797944839	-0.813609000558956	0.00135919275340623	0.00313946682717931
			7.42865106977304e-05	0.000130513787002652	4.00100792149094e-05	-0.000171912230342114	0.00120409003863395	0.00300373362493791	0.352756102951088	0.908927553701574
990000000	-0.0161311163638105	-0.180434668927804	-0.339484977641702	-0.753473218940841	0.00256589224376015	-1.14298239168326e-05	0.000108491408134279	0.000135943123123414
			-0.339359947282832	-0.752524069078016	0.183294921490828	0.193391330585796	0.00185500972184575	-0.00386426828100606	-4.57201104098651e-05	-1.65995685021091e-05
			0.00426280969498852	-0.000225130203099356	0.00122348595884495	-0.00410820462836893	-0.55206104321496	-0.717720547659101	0.00168111047764769	0.00272097511080678
			0.000155364393767289	0.000108056925628839	-8.81628737819847e-05	-0.000159503212986903	0.00156317885728229	0.00271801433205259	0.419383237387827	0.876964712555308
1010000000	-0.146409958589473	-0.118236327069312	-0.661160693228405	-0.515137807360993	0.00336492199805739	-0.0020130842924239	0.000145772667188992	0.000122527324174653
			-0.660714880223585	-0.514941746950943	0.200051240081823	0.141625054622679	0.00215898657940436	-0.00509598954992314	-3.24304416666846e-05	1.44985454359594e-05
			0.00395023377319164	-0.0034096154678673	0.00169434201965924	-0.00459077066705644	-0.681577086508409	-0.594662523116609	0.00186745159356037	0.00233377858422213
			0.000128496066231231	4.94361648214772e-05	-0.000167630078774814	-3.95991430202386e-05	0.00182911287301368	0.00238664616516023	0.482404535945376	0.842093375322026
1030000000	-0.18617888921562	0.0084147599427713	-0.826408317701701	-0.19179306595846	0.00293309265666399	-0.00540859817827864	0.000154532136156777	9.35724687551771e-05
			-0.826626011376068	-0.191760850143425	0.188757798705688	0.104309031948008	0.000563590173941436	-0.00565078926129831	-2.0458324073027e-05	3.73683236147416e-05
			0.00212598337089786	-0.00560972007105768	0.00136840747842839	-0.00546779687502449	-0.777101523916408	-0.451686275002371	0.00195060156711963	0.00200750077187724
			4.92573820995972e-05	7.5511415960385e-05	-0.000136499967441983	0.000109332029518642	0.00194213353114175	0.00211230878717381	0.542340668337241	0.804527439718335
1050000000	-0.134682532505479	0.119670509810288	-0.844971066610708	0.146511794681978	-0.000887632323102165	-0.00639881701579564	0.000104606138194459	7.98891213108777e-05
			-0.844976788014419	0.147330842344542	0.17688560241262	0.0927266038932261	0.00103705134825576	-0.00523574496570214	-2.67695576807643e-05	6.42983230103524e-05
			-0.000304966983905329	-0.00649807578685786	0.000275226152887163	-0.00599738677371327	-0.847011557153323	-0.309590857671466	0.00195868994043475	0.00181858958774221
			2.65246367961176e-05	0.00018898100686688	-1.2299766640146e-05	0.000189428880389138	0.00223242635803433	0.00195314878371289	0.600308756170103	0.765283975544197
1070000000	-0.0315300217975074	0.166420129925365	-0.737994300149516	0.45196255293071	-0.00275344851778534	-0.00568755656111962	5.00246036167044e-05	0.000338926802140944
			-0.737332900528194	0.451431495821276	0.185283458776422	0.0729320300743584	5.01054192211183e-05	-0.00654869739686979	-3.87231332728764e-05	0.000230295659643214
			-0.00263346335509695	-0.00618516839729745	-0.000671056985526188	-0.00575412937887105	-0.894296455546459	-0.152647278927016	0.00230044375473566	0.00197269948255508
			0.000118952002324082	0.000307067968096046	6.50686123595413e-05	0.000166171906405241	0.00246052856026694	0.00158843192016764	0.66467519573847	0.721939815162628
1090000000	0.0704306467091973	0.136984401339678	-0.533054307680113	0.684060578460007	-0.00435846999597659	-0.00477095735618437	0.00048214704675752	0.000150282797954367
			-0.534334935056631	0.684892677802042	0.147391120647533	0.0528677710357993	-0.00189060519757117	-0.00668559770900603	0.000250622487555821	0.000185712401670029
			-0.00440080327406891	-0.00500934253759948	-0.00163246324573789	-0.00608729795490477	-0.909516283360073	0.00702711888136265	0.00261189494344753	0.00107523665138938
			0.000299919375889806	0.000332638452036331	0.000162858757351795	0.000240871577670394	0.00258850584845709	0.00123058138030298	0.710810387510927	0.660310627506677
1110000000	0.127318365112461	0.0521157570547137	-0.272659344197967	0.824541036649689	-0.00550885045958982	-0.00327191892027875	0.000404418160232001	-5.67282038672172e-05
			-0.271715530620973	0.826367301312045	0.133952784315718	0.0794777939216834	-0.00365310297693181	-0.00572705972323156	0.00029059614546662	7.9887315750629e-05
			-0.00539646466808026	-0.00339097186393339	-0.00324350887949738	-0.00548334197005482	-0.896079398641763	0.161719824127932	0.00241139550395711	0.000820377299654788
			0.000478141185263436	0.00021785038379582	0.000341528754903172	0.000163257215204267	0.00266587834445835	0.000883002288770506	0.755577358730231	0.611147953430409
1130000000	0.118425558438833	-0.0486608603982412	0.0114547298794685	0.868157570316811	-0.00585648088646267	-0.00148177654103617	0.000315563815195654	-0.000146297423516684
			0.0136402463674238	0.868170906361856	0.147635827809755	0.0978845084140467	-0.0047080452841672	-0.00409864676190666	0.000327033808008724	5.15995225341482e-06
			-0.00562243782013647	-0.00172609574754884	-0.00426024037583934	-0.00417265272708595	-0.857726553429986	0.306505934143988	0.002418785726995	0.000667327538185793
			0.000551358661657663	-5.80036433686778e-06	0.000416344620556144	1.5393739268209e-06	0.00269896145404112	0.000540616008850326	0.801700869631797	0.556748511348333
1150000000	0.0501491066232789	-0.124273380009688	0.286528089936572	0.816731474771544	-0.00538524505066543	0.000121780589371661	0.000224695622572922	-0.000187768102148319
			0.287719997246302	0.814929946200607	0.17023043574813	0.102654279141351	-0.00489961520228328	-0.00233539179962378	0.000350815855681453	-8.42005521363184e-05
			-0.00523308541078722	-0.000312570463431116	-0.00460802915451454	-0.00271591817447776	-0.798693242746532	0.438104846356765	0.00252830300015346	0.000452925719672072
			0.000464723335203631	-0.000240644492863926	0.000393231446068702	-0.000151416676166679	0.00268639711072507	0.000206245288417876	0.84526225054799	0.495733636348678
1170000000	-0.049929251832466	-0.147122899879621	0.523600619756111	0.682798703000735	-0.00436992886347657	0.00118806621679445	0.000144569329409035	-0.000187847393255275
			0.522855800242259	0.680869134687851	0.193615982388487	0.0956344955604171	-0.00438973979178739	-0.000877259478300451	0.00034000813076499	-0.000182364382252629
			-0.00445855776042857	0.000687592333187212	-0.00441957436927782	-0.00141512045615366	-0.723098999688305	0.554854047913411	0.00263458194211075	0.000108003192001414
			0.00024656896781298	-0.000371671758962066	0.000311205332762852	-0.000248134925281699	0.00262845584444142	-0.000112418364087769	0.882708049167528	0.427967287557275
1190000000	-0.145396560987406	-0.111421478728236	0.701468256173488	0.486563932350393	-0.00318052628455002	0.00161536826130734	9.54686685049853e-05	-0.000165172953402588
			0.699635441548562	0.486036367251311	0.213684668145271	0.0800595997042725	-0.00349307790422477	5.74018821275532e-05	0.000293293553279415	-0.000262292320668636
			-0.00352706382935567	0.00124542461079811	-0.00388978666929149	-0.000419861680359917	-0.634349101990563	0.656208464855928	0.00260454913161338	-0.000330064531026977
			4.571781556462e-06	-0.000330043694432944	0.000223504216208127	-0.000274880482222344	0.0025292632695874	-0.000407047571546026	0.910783668921204	0.356396653358942
1210000000	-0.205041247440093	-0.0333390834983265	0.808156706625594	0.25162022128373	-0.00211534485190477	0.00150134676573373	7.68715468382648e-05	-0.000151869422874568
			0.806835506799224	0.252585327177939	0.229598340375466	0.0590860962402382	-0.00251285449292248	0.000454699378693248	0.000237058595709415	-0.000309570613940416
			-0.00260464685271018	0.00142586144323204	-0.00319991575361536	0.00025242063133877	-0.535012675394387	0.742080570524843	0.00239581797833405	-0.000722135078464477
			-0.000121148390544756	-0.000146892791537896	0.000180149875868186	-0.000257073440723446	0.00239558304739908	-0.00067141029229829	0.929833353978964	0.285676020656288
1230000000	-0.214956200930587	0.0563000516689214	0.839895585031566	0.000952614263965417	-0.00133947143351011	0.00103388208330342	6.43403889461769e-05	-0.000169779999571833
			0.839923320892182	0.00220067725947596	0.243000319370577	0.0331350105633472	-0.00166174901620816	0.000418244062923525	0.000196794368121201	-0.000342165893983798
			-0.00176809610015914	0.00132325967636354	-0.00244093258778227	0.000659540094650632	-0.427044116878883	0.812394295823832	0.00209130035050886	-0.00095548239444784
			-4.71500846073569e-05	2.65466420209177e-05	0.000198325917186347	-0.000256893354684478	0.00223485655339043	-0.000901917775838743	0.943353687991515	0.21834786684661
1250000000	-0.185780065525669	0.127253014990994	0.798389725764842	-0.245272715717948	-0.000898543799668323	0.000406352218361676	1.46823042615676e-05	-0.00022389727324592
			0.79918020165622	-0.244960098009843	0.253408268536434	-0.00293367507495429	-0.00105601720503107	9.13584049095605e-05	0.000165984701145661	-0.00040224308216849
			-0.001031112240239	0.000987888535769714	-0.00159542472276377	0.000806027353120365	-0.312075153568078	0.866908624586138	0.00183879576023215	-0.000997721297180763
			0.000124871596858318	-1.37791725010879e-05	0.000224531744362519	-0.00033853487767358	0.00205396938746746	-0.00109692565404239	0.955987352511333	0.154026033227051
1270000000	-0.143209006114041	0.172830303775072	0.688013234001531	-0.469484474347746	-0.000756854977684053	-0.000224682500840174	-0.000143946350871067	-0.000237587788687425
			0.688328593883522	-0.47014825226777	0.24881457130351	-0.054524568607948	-0.000739513781002017	-0.000385915393982248	4.63176542842781e-05	-0.000498291811126858
			-0.000449120644561196	0.000409322607434395	-0.000705726189712301	0.000526102377831021	-0.191640555125118	0.905201118197525	0.00185333075028996	-0.00102874333921564
			7.38325865302179e-05	-0.000250433257397744	0.000146850357217268	-0.000475637523568378	0.00185889889649356	-0.00125579796770099	0.972228179857467	0.0846755212625876
1290000000	-0.0898701318137082	0.205715209349755	0.514774779732516	-0.654676425363187	-0.000832197205689998	-0.000753234516941578	-0.000237277190275885	-7.89062053796804e-05
			0.514063763321146	-0.655318892125375	0.209969476149892	-0.107936929859899	-0.00070892043816801	-0.000892442563809588	-0.000129743819928574	-0.00042291220357304
			-0.000156493112789609	-0.000320875884937079	-0.000123585362321906	-0.000291639136170186	-0.0673242403200068	0.926710840752314	0.0017576909048227	-0.0014092324685017
			-0.000252794102432103	-0.000254904087923782	-5.25609480800497e-05	-0.000519705685588987	0.00165490229670226	-0.00137819734386454	0.975007196883697	0.00366057045559387
1310000000	-0.0181846860374092	0.206404816264137	0.287876555757733	-0.782644674318717	-0.00102124195521222	-0.00112481238790061	-0.000210624355300146	1.43718262500397e-05
			0.286749327425536	-0.782337097052067	0.140068765785024	-0.131564436867141	-0.000930090377925175	-0.00132796645315846	-0.000158170621503784	-0.000314543811761926
			-0.000110545746924862	-0.00100502784096706	-0.000229427679347482	-0.00130963052580474	0.0591463307352879	0.930793162292438	0.00138036384684789	-0.00158938748877792
			-0.00038034748849951	3.82685791403283e-05	-0.000223099761273203	-0.000401244349176294	0.0014469444925404	-0.00146367943782686	0.965491089714817	-0.0683302462226241
1330000000	0.0353584237616278	0.157685097522512	0.0228578156199346	-0.834180165464096	-0.00121850251027173	-0.00133299310184561	-0.000205648707846635	6.20515909359968e-05
			0.0225063558103069	-0.833072698268927	0.0688298790990703	-0.109259569531434	-0.00134468902797913	-0.00161140179632265	-0.000156116811179181	-0.000262438581299346
			-0.000182482470036047	-0.00164849215622959	-0.000955814296847801	-0.00200722879455624	0.185832291331241	0.91677305393201	0.00106548081147088	-0.00158720980226328
			-0.000258280119551176	0.000217541242706637	-0.000255768223636138	-0.00022613840564592	0.00124021881010808	-0.00151154209792489	0.954763088308911	-0.135837196699516
1350000000	0.0357140739930293	0.0896367650982917	-0.254790623954647	-0.79225270289229	-0.00133382114082142	-0.00141319775031026	-0.000221795927384747	0.000119707449670369
			-0.254002231446398	-0.791697488594086	0.0267727202792748	-0.050957880777114	-0.00186882679712404	-0.00168181826068867	-0.000162192578011452	-0.000230697761713131
			-0.000434011708625741	-0.00229200631129888	-0.00192053163786476	-0.0021174527418707	0.310529036283219	0.883994791167579	0.000827695008648759	-0.0015224586279337
			-0.000182321283642739	0.000229264675433845	-0.000184132860294932	-0.000110470842051141	0.00104072262482084	-0.00152088543829055	0.941783674766388	-0.202731325856504
1370000000	-0.013558626531742	0.0463499328284738	-0.508432813530463	-0.649286483163533	-0.00131205960479573	-0.00142939385983337	-0.000241312871158587	0.000211774501239067
			-0.507900691482757	-0.650230373482339	0.0312147130288318	0.017139224908748	-0.00238557448690933	-0.00150792490727676	-0.000178941401542661	-0.000197272787068578
			-0.00096744177769521	-0.00277244380103816	-0.00270458218949365	-0.00167400851515507	0.430722886139368	0.831862022296945	0.00064625815226543	-0.00142518251950635
			-0.000222293237055289	0.000283704657894955	-9.49999883295342e-05	-8.34355410163554e-05	0.00085589782609471	-0.00149088824119181	0.925429062541112	-0.269645822408847
1390000000	-0.0796424814258457	0.0525189991713328	-0.695815761265038	-0.415494416763936	-0.00115418195874749	-0.00144282184719607	-0.000233511418560919	0.00036575608307971
			-0.69712840999556	-0.416659085393641	0.0806639534718206	0.061409887270975	-0.00273459906090035	-0.0011150505311318	-0.000201406193798515	-0.000141045033132651
			-0.00167914570394501	-0.00276478078177717	-0.0029856520983632	-0.000954180719784588	0.543566567997651	0.759838363616674	0.00051594421913481	-0.00129829789229994
			-0.000204938471106477	0.000482037624496887	-4.70505317312999e-05	-0.000104387324514819	0.000695335178545239	-0.00142134784988047	0.905218199220038	-0.336877064248673
1410000000	-0.125898359279433	0.100615865774813	-0.780408926545937	-0.121140587453309	-0.000924881131353938	-0.00144497270095233	-9.11118480888609e-05	0.000611886643873794
			-0.782596620645217	-0.120312010808577	0.150809378388649	0.0519985719073325	-0.00270942832320209	-0.000644833774868429	-0.000195364736155486	-2.44985451702563e-05
			-0.0021336339958956	-0.00201681066667173	-0.00265320453887265	-0.000418636749435261	0.645897347424207	0.667282217925108	0.000459604286065068	-0.00113829617190774
			3.71965131915255e-05	0.000674923134847982	-3.82420815835864e-05	-0.000113073915537501	0.000571444876957257	-0.00131339825565649	0.880415466985923	-0.405651815700102
1430000000	-0.138458782095935	0.161560410669345	-0.739996678566774	0.189705043159722	-0.00069450438958565	-0.00125536309198474	0.00047413198483227	0.000654589027490675
			-0.740328193548319	0.191963008578931	0.196904939363764	-0.0220309368212478	-0.00208802022856864	-0.000456950347768593	1.61842952993522e-05	0.000104162633862181
			-0.00168182394841137	-0.000679777613724607	-0.00189329802710429	-0.00054198203354584	0.734289098529927	0.552515866892461	0.000543649255498969	-0.00102163457996217
			0.000418798247764869	0.000597883703896294	-1.29677235847054e-05	-8.47799348255601e-05	0.000500089646320284	-0.00116891660416409	0.844842011660227	-0.477063858709986
1450000000	-0.133916040692671	0.21552570534631	-0.566680178212244	0.464555474253691	-0.000393184263948674	-0.00061581059390094	0.000506761305900424	-1.18497603982404e-05
			-0.565538536915783	0.465048724307302	0.165804838806118	-0.137131943416547	-0.000585959720862518	-0.00118812490266915	0.000175961023241418	-0.000163865796085694
			-5.69887090217749e-05	0.000283403281591595	-0.000784242366510258	-0.00144130216532093	0.803836543682204	0.407753754952386	0.000547248929565806	-0.00103063129085679
			0.000578640670277006	0.000198901237099156	8.93764193229281e-05	-7.68647161563073e-05	0.000508187520941474	-0.000977837702214886	0.799010860631034	-0.53453271622112
1455000000	-0.133163356290223	0.229187388629683	-0.503031271595124	0.520231913410041	-0.000340919442205477	-0.000443208032318738	0.000388045466040137	-6.51507579143944e-05
			-0.502189265964952	0.520121068926719	0.140960032541937	-0.16515129010075	8.21303156627465e-05	-0.00161874872567235	0.000139694696909174	-0.000215674849726866
			0.000340178681076265	0.000217407928315307	-0.000226226148497125	-0.00177639447046006	0.816495833893712	0.363709861245672	0.000541607915460934	-0.000994532186096532
			0.00053864567884499	9.0831538203151e-05	0.000125910939931247	-9.50848785848183e-05	0.000532559188801495	-0.000915898514394796	0.789169159782642	-0.547774374927382
1460000000	-0.132870760136941	0.244294812575051	-0.431880963531489	0.568250153966738	-0.000417708227417388	-0.000344017090590143	0.000284720419747501	-6.5927752921708e-05
			-0.431645205925109	0.567755256138989	0.108857128828847	-0.190021123805705	0.00105702862089365	-0.00223291082695345	9.63093499985272e-05	-0.00024323166520785
			0.000500967384411874	-6.71019561324918e-05	0.000704791741634289	-0.00224097933467185	0.825363910641341	0.314347478665426	0.000556283016839288	-0.00094322633751903
			0.000463195191315501	4.64830709290265e-06	0.000161332483675413	-0.000127827811187134	0.000575707561844327	-0.000843686081137413	0.779580846619773	-0.561452048622675
1470000000	-0.13124975128626	0.283423106129736	-0.27007799361854	0.635461746124724	-0.00223874945784817	-0.000409649751203507	0.00017347745514837	2.84190362219577e-05
			-0.271371471883391	0.635590253487226	0.0247452591213903	-0.224248414505703	0.00519328320107952	-0.00523239806700823	1.89772532815863e-05	-0.000234697420204326
			-0.0014877722523469	-0.00112003358220035	0.00505949635983087	-0.00503451478381295	0.815414934168395	0.192186978305709	0.000690443809995131	-0.000819536999112722
			0.000249789907651992	-2.31488506121294e-05	0.000194312284047021	-0.000244941254504239	0.000791835747417457	-0.000668319426435807	0.760082032905377	-0.590246978570621
1490000000	-0.0584756235866651	0.37220802484705	0.0812813758085091	0.620368299017486	-0.00605261510940262	0.0338592894049097	0.000606622637466497	-0.000234887836330949
			0.0824480986062595	0.620555294966477	-0.213713562709664	-0.186506034861583	-0.0194604546740123	-0.0492405591455939	0.000284316483632175	-0.000113017997312869
			-0.0062527641266246	0.0352858157347659	-0.0196897039771113	-0.0499479046711177	0.564294166932671	0.238265227747257	0.00160007405112188	-0.0017924329480288
			0.000578761162778487	-0.000206526700694849	5.65072931843413e-05	-0.000135919075834853	0.00145475543767225	-0.00193081058396916	0.708275184197314	-0.65350565564402
1510000000	0.0381001266707678	0.431521549270633	0.369403443033393	0.402468818337151	0.0457390606287253	0.0423492354278778	-0.000477727712353325	-0.00021344820359738
			0.370149736732523	0.404469095269601	-0.353533891537555	0.0687537503878665	-0.0765216778795804	0.00311469279788327	1.26562813533006e-05	-0.000564100716836434
			0.0451332144938509	0.0408349981150005	-0.0754625845984022	0.004370415993889	0.821204070264731	0.178597078158178	-0.000165771276611911	-0.00157290485741897
			-0.000328660934510337	-0.000145874749000234	0.000322986085779406	-0.000568970960933223	5.71088642002831e-05	-0.00163475067728966	0.657710654547027	-0.694874301597292
1530000000	0.170519806933852	0.355599017732355	0.436601234159555	0.0236772789273948	0.129302165745512	0.0467016001548003	-0.000591928718773529	0.000405703185615473
			0.437922493277987	0.0224036612544654	-0.289547225055063	0.306586767744139	-0.0572867473260458	0.101174134119277	-0.000187786056550948	-0.000497218749351181
			0.128869722046472	0.0476058107393888	-0.058137729662258	0.0996742718086975	0.808534663849608	-0.0702119992880528	-9.71622905115901e-05	-0.000893206328908359
			-0.000419414867465733	0.000135332756725513	-0.000234196721758966	-0.000885187962649854	0.000142912333024966	-0.000808603956909438	0.604864614648646	-0.745852077911138
1550000000	0.0767187182414177	0.433009883309404	0.110040081303601	-0.166357893398438	0.272815301939963	-0.165539351319921	-0.000414083378139739	0.00103296369994961
			0.110949522318428	-0.166396339377082	-0.249173768226184	0.486508132159763	0.101727393087198	0.0807431088597554	-0.000296040149498814	-0.000413501567650905
			0.272119704450997	-0.167748684049135	0.103405587007455	0.0815723854317053	0.675603563175549	-0.148101184581773	0.000201771966221551	-0.000459643514601966
			-0.000940740402714822	0.00130756187311424	-0.000593542472551477	-0.000305383926226943	0.000562424036720668	-0.000887154910032811	0.54370896311645	-0.793200308194619
1570000000	0.417089804475584	0.478395973131839	0.0328151177470568	-0.0433531165035484	0.0720985295130786	-0.387611214205419	0.000237401441801828	0.00165880260461238
			0.0321153213596065	-0.0435942322936824	-0.00666246785722288	0.713012464033947	0.0643053990165608	-0.0301229376386489	-0.000349691007800346	-0.000309465810132193
			0.0701468554053817	-0.385069304213344	0.0635304004031786	-0.0310253874388205	0.656352877051801	-0.268646013782382	0.00077810788777838	-0.000190166388791437
			0.00071513274477444	0.00194202996833798	-0.000331014053660315	-0.000170031014843523	0.000553434735603718	-0.000515131369215246	0.475749194501777	-0.834161159206671
1590000000	0.569244842708831	0.186452713464266	0.0256017271826865	-0.0272100941318544	-0.170795633866741	-0.435881043571735	0.00151320187747562	0.00177912529264005
			0.0257607363244125	-0.026609472309688	0.281403688589071	0.737616331876279	0.0166879127491655	-0.0329577301722405	-0.00032813384721112	-0.000216243453364246
			-0.169032951541868	-0.433986525360401	0.0159343960861413	-0.0321866958185045	0.498403987109485	-0.407260808358443	0.00160238879788733	-0.00036718883072142
			0.0016433214153553	0.0013605572284489	-0.000239622179895729	-0.000168451657744718	0.0013050496147254	-0.000251931903363529	0.40369844373911	-0.865937781929784
1610000000	0.460281161787892	-0.0803400023948848	0.0115387201642201	-0.0166527926561062	-0.446257490946976	-0.361190675462195	0.00274789497078046	0.000782691175741609
			0.0119707839140972	-0.0169033500850891	0.519063528284903	0.66187219191424	0.000195333425552956	-0.0183212598249529	-0.000266604090734283	-0.000204463870537611
			-0.445092057404368	-0.361530220304955	0.00089602318719006	-0.0175098882052548	0.27166330202575	-0.419067337706477	0.00218564036609144	-0.00116675537447436
			0.00229188632715432	0.000769518147683314	-0.000167103396266256	-0.000248178342702604	0.00225695252878344	-0.000739458398714866	0.332674436149957	-0.889568210031561
1630000000	0.230887605337938	-0.15044008429755	0.00701600119084523	-0.00511088610644008	-0.672057021769564	-0.0985054249351491	0.00298984518735177	-0.000812013410379337
			0.00665171940919949	-0.00533921718205935	0.696392467340274	0.52523783199587	0.000116689070513476	-0.00771461383036562	-0.000261150452325456	-0.000260925221993382
			-0.671266829436055	-0.0978548114687307	0.000882588379173672	-0.00841556564691425	0.106399560382482	-0.283983345232817	0.0021434467260315	-0.00210651204051037
			0.00293486720466527	-0.000266715324800704	-0.00023117737695777	-0.000382437691536258	0.00268579676878518	-0.00194402099780979	0.262880996566861	-0.910369979106305
1650000000	0.0958614477076363	-0.0416043794509772	0.00857934009254003	0.00017656271916876	-0.689339928416028	0.275620185417781	0.00236333560608434	-0.00212620116944695
			0.00833410223866614	0.000562540559389226	0.805594415435911	0.363849003934017	0.00415468015434512	-0.00629029002293777	-0.000327154982703608	-0.000304566443146379
			-0.687494043735203	0.274480316696079	0.00337923895946694	-0.00695624028956251	0.0980199484081321	-0.117916113935913	0.00174400529793062	-0.00276855728913701
			0.00286597015543029	-0.00188106639516027	-0.000408766611887327	-0.00040947023721558	0.00218225075117774	-0.00311133351797542	0.190055836539097	-0.929082279433094
1670000000	0.114030893546928	0.0683368846846157	0.00981179245593539	0.000707323191752058	-0.502524324308061	0.567668920112897	0.00133887669652971	-0.00294689119964996
			0.00997908449470189	0.00103180158786604	0.861780220044591	0.208557596065844	0.00335537257212482	-0.00903459980627624	-0.000423759279716093	-0.000300491910185662
			-0.501483402076339	0.57008897194562	0.00343885997074972	-0.00853522475292215	0.175233650021397	-0.0449728353801579	0.00127595185429416	-0.00317921215129765
			0.00173711386725281	-0.00324226887008871	-0.000555928267477454	-0.000305839923162638	0.00142123687460557	-0.00362980131149504	0.112657687414285	-0.942873086171974
1690000000	0.187717436397893	0.0907550847802057	0.00958656687344671	-1.36455555373354e-05	-0.23406375831021	0.728244769423632	0.000145450042361588	-0.00332019679277106
			0.0098029888766498	5.25804912719467e-05	0.88657034822381	0.0684373386439627	0.00182600363732679	-0.0103283093508362	-0.000518921250861579	-0.000249390357347323
			-0.234140967833026	0.724352264562279	0.00145732044236237	-0.00990403976805214	0.2475989945972	-0.0642878493775175	0.000819275643808952	-0.00345131870219322
			9.12302515879825e-05	-0.00374185074483087	-0.000609748028897485	-0.000156370164358515	0.000495131304986192	-0.00377571054204141	0.0315245057315399	-0.949472488095481
1710000000	0.23854902283345	0.0466588678608684	0.00881734019093069	-0.00062620528220084	0.0425864344033002	0.762961098383199	-0.00110820056482427	-0.00325853328219636
			0.00892196364903133	-0.000699390711400787	0.893277091111977	-0.0593155438878975	-0.00163282960355891	-0.0106180109021518	-0.000592952127475695	-0.000160981899957472
			0.0401960172215158	0.76265886335736	-0.00135207489436433	-0.0101387791645735	0.25800934854106	-0.119718344168393	0.000370632271925514	-0.00364250417312121
			-0.00146712243655937	-0.00340714849467002	-0.000587548209535117	-3.1289164215191e-05	6.55963450496913e-07	-0.00355837951223902	-0.0518127082901052	-0.947625597095287
1730000000	0.242270013581401	-0.0205287564947992	0.00817621474402712	-0.0011189751166661	0.295136700993071	0.711297564553375	-0.00229591357188895	-0.00274219969964001
			0.00812439636419921	-0.00123953687714862	0.887287149989788	-0.180078841187446	-0.00463302365626135	-0.00907909272984758	-0.000632719361155576	-4.92620837997415e-05
			0.295266610299832	0.712880163178047	-0.00419274515281595	-0.00912941069827308	0.222761191595727	-0.162849617678544	-7.99224023195749e-05	-0.00376648340223452
			-0.00260906848765347	-0.00252314004041196	-0.000534526924252446	3.77667414136034e-05	-0.000230789837211301	-0.00341285135862106	-0.135636925818404	-0.936826859106834
1750000000	0.203340673027391	-0.0775826932604256	0.00774025442801661	-0.00186148549811477	0.514175348390013	0.589706209785593	-0.00324396583836391	-0.00179475131511849
			0.00751118632703895	-0.00189956172039042	0.868015671285598	-0.29817949779362	-0.00647011583095978	-0.00662841220712713	-0.000632427899814538	6.75151677782008e-05
			0.516448057013444	0.589176779647094	-0.00640969437175238	-0.00696370774640508	0.165635973470408	-0.174569758106738	-0.000527134464271406	-0.00382194619820898
			-0.00323980136102077	-0.00142070589003539	-0.000501734426191669	5.636946277256e-05	-0.00036515471393154	-0.00342094271319928	-0.218299658150986	-0.917263630675644
1770000000	0.137100914970073	-0.105121214392845	0.00709659125042742	-0.00302530243758181	0.685707440343138	0.406419126698794	-0.00378225052486309	-0.000536465220230847
			0.00683140462784673	-0.00284398823502873	0.8309729471941	-0.413036077909685	-0.00706935546713785	-0.00401672670538832	-0.000596534278764129	0.000170607235721545
			0.686193236667001	0.402979641298241	-0.00734152346405781	-0.00412416620059563	0.110872465110467	-0.151665132080506	-0.000953401049803302	-0.00381429999777867
			-0.00349208974620604	-0.000385030894223492	-0.000519433519724295	7.03047005485747e-05	-0.000540012285410959	-0.00357570698746575	-0.298569504041067	-0.889686545208875
1790000000	0.0594647977242346	-0.0903970596957036	0.00583082802716933	-0.00422671536357433	0.79004565783504	0.175398507988941	-0.00382216408446318	0.000832439484197358
			0.00570633133732192	-0.00393401472065308	0.774617555978897	-0.517373977728834	-0.00667433885389005	-0.00180267301643554	-0.000538677553896202	0.000247482629896662
			0.786746986035492	0.173084474004795	-0.00684869288869617	-0.00159282802924696	0.0784565572051211	-0.10388462775931	-0.00134323286744759	-0.00376433933222627
			-0.0037286421351406	0.000628800367757227	-0.000560947838211206	0.000131965060877867	-0.000851984671776094	-0.00380386538663537	-0.375866979838249	-0.855018444954569
1810000000	0.00899765452108714	-0.020516818602164	0.00410012478608934	-0.00490047916635224	0.811376872159917	-0.0768464689402488	-0.00339007747386596	0.00210662840409415
			0.00408438354169263	-0.00454623993084304	0.705419376446936	-0.604776700145678	-0.00572456082947128	-0.000288628034220521	-0.000475545347849172	0.000295855534498498
			0.808207439891346	-0.0753513725152507	-0.00563412619191915	-5.88529740966167e-05	0.0781597038106901	-0.0502938809071865	-0.00169692634357852	-0.0037027369675378
			-0.0036039241858323	0.00221280067173293	-0.000569371130207024	0.000239187826335772	-0.0013298587907716	-0.00399497051135015	-0.450146718809399	-0.813905882909147
1830000000	0.0216543435812576	0.0505542669437034	0.00238174286273287	-0.00491527132312889	0.749150217125792	-0.316408373902979	-0.00259327443951321	0.00314389047612954
			0.00261201005885337	-0.0046316095525284	0.631390585218842	-0.676144247158742	-0.00468455549414269	0.000538152089380072	-0.000420448257842656	0.00032206472101874
			0.748864122921987	-0.313596265985729	-0.00446450032668974	0.000603346315761978	0.105693406979142	-0.0110453983872332	-0.00203561848423518	-0.00365881563067223
			-0.0024569711486813	0.0034065606146583	-0.000524491226519612	0.000348667941733394	-0.0019268291676395	-0.00405269269713334	-0.521545343208675	-0.76653556868093
1850000000	0.0600695491335175	0.0913287821658184	0.000963299261018834	-0.00447719375191539	0.620170720924514	-0.515375378312262	-0.0015575924718295	0.00388395648094773
			0.00123933271221161	-0.00447083782753096	0.556052105498622	-0.735696746695328	-0.00383725829763362	0.000940311098726659	-0.000381058184277268	0.000336761673754696
			0.622514027718997	-0.514592299183378	-0.0036106223453924	0.000821427409019934	0.146145028862848	0.00199641123435457	-0.00240378306512986	-0.00365282712031975
			-0.00128148223692274	0.003880590275894	-0.000443862369479409	0.000429724983911227	-0.00255584244807331	-0.00393977084561368	-0.590146683367024	-0.712748180073411
1870000000	0.105730520579504	0.10611496284638	-9.87212313178455e-05	-0.0038081818818536	0.44874172316324	-0.661708603064066	-0.000374191146711302	0.00432766612174192
			-2.30606910930301e-06	-0.0039810424393087	0.479646043413296	-0.786532856383677	-0.00315445866662832	0.00122335236296414	-0.00036121624182448	0.000353653135507308
			0.449529496628904	-0.664530880237137	-0.00303138187701711	0.000884607006744323	0.183001133748556	-0.0115151769340136	-0.00289228286084337	-0.00368275083487445
			-0.000243927550601123	0.00410878073951153	-0.000351007441642462	0.00047566917660645	-0.00314675070757183	-0.00367548325110962	-0.656178642777954	-0.6521196909876
1890000000	0.147709657961975	0.0977519601163762	-0.000840140329257107	-0.00304673669128815	0.251723712009781	-0.757295320362404	0.000960272558969865	0.00446600075095012
			-0.000967998980047901	-0.00320813140584092	0.401538868163058	-0.830033111048067	-0.00235771890991261	0.00138636671284044	-0.00035639442012904	0.000401437364592633
			0.248022860519648	-0.75837716617755	-0.00262226523992429	0.00091319654019195	0.204565144427001	-0.0455669901187251	-0.00370610888528328	-0.0035733303997852
			0.000796305579467726	0.00421174456189736	-0.000261948297621444	0.000491934806537096	-0.00366345955876013	-0.00327923797824682	-0.720711501941659	-0.582446951439073
1910000000	0.176453266464813	0.0724500962326279	-0.00130998811215444	-0.0022691149552668	0.0334034270226967	-0.798291098523186	0.0023126040367603	0.00399441331289132
			-0.00157518843944781	-0.00228045038257254	0.32122229629861	-0.866540809634424	-0.00163965622991581	0.000983926895950184	-0.000278776085631313	0.000486818648496527
			0.032500113911718	-0.794960195740413	-0.00230406056910062	0.000938456107278531	0.199563094315901	-0.0917550702151312	-0.00431780542075575	-0.00256890868077149
			0.00192363929516152	0.00413629864287495	-0.00018519082668548	0.000487371103415672	-0.0040183697125439	-0.00277471954962325	-0.776382707878683	-0.496033975559494
1930000000	0.186405199524543	0.0400208997513521	-0.00154882854238731	-0.0015212727198136	-0.186496242868605	-0.773550790149642	0.00314813257620621	0.00336010755135457
			-0.00181135074429312	-0.00134070209392523	0.238505749302776	-0.89590264333349	-0.00164797060688221	0.000499750228316496	-0.000192011544189095	0.000468115773923374
			-0.184735332523215	-0.773766823425342	-0.00203217435337683	0.000957631155824922	0.162128492799902	-0.129137550393614	-0.0039807839383704	-0.00222045615462146
			0.00312867535515901	0.00376741276393767	-0.000124118680059523	0.000470925211790679	-0.00418276419480959	-0.00233853267446321	-0.814988163089571	-0.410338420011082
1950000000	0.177699338963116	0.0115949967817711	-0.00158881725928098	-0.000837726677655666	-0.388935166152794	-0.69279198564107	0.0039747181612248	0.00273080316967171
			-0.00171843662917605	-0.000520006548470863	0.153488519570323	-0.917740459023354	-0.00183647892742323	0.00053106747237692	-0.000160230986867078	0.000463793618230806
			-0.390835485288543	-0.694045442541771	-0.00178737087295621	0.000959267344824948	0.105237281699994	-0.140814230750277	-0.00420517613615929	-0.00227151278154352
			0.00429553843692712	0.0029885356441084	-7.8618423563838e-05	0.000450656177354336	-0.00431582227209994	-0.00203843386567061	-0.851230126577739	-0.322111645407386
1970000000	0.156689297675131	-0.00402060285843908	-0.0014590247451056	-0.000250022272892008	-0.567587474265131	-0.559365734665165	0.00473708107038682	0.00190064366922329
			-0.00138419546993944	6.96234661159065e-05	0.0665146116840464	-0.931574889252703	-0.00174515147529782	0.000791808224999079	-0.000124882853025925	0.000481079736406293
			-0.569805442658277	-0.556274825340499	-0.00156632547739786	0.000933392179702764	0.0430801147180355	-0.121893690490695	-0.00470209912288799	-0.00214713620664772
			0.00518048431590234	0.00173510272767796	-4.58744789555577e-05	0.000433327963619699	-0.00447073420289135	-0.00182083166690564	-0.880273638936042	-0.22623309407794
1990000000	0.131802127705302	-0.00826227736454199	-0.0011911122788396	0.000210725143569589	-0.703094013087438	-0.36633665253482	0.00533939149956783	0.000872612526993109
			-0.000972347053883857	0.000321140268653189	-0.0218469280371195	-0.936889363503791	-0.001294046783319	0.000843452377561798	-7.46966582060925e-05	0.000504020620300005
			-0.699297467081189	-0.365251848757342	-0.00137480078539621	0.000875474561790578	-0.0145919810622268	-0.0705722335256512	-0.00530320000717958	-0.00180918373436093
			0.00521689687749936	0.000138039851797342	-2.07561065728881e-05	0.000423936153175816	-0.00459216284420992	-0.00191096504187769	-0.899002587552002	-0.123593386774422
2010000000	0.0750606582793815	0.0291303249064738	-0.000824326005794547	0.000514825478789878	-0.757428755779974	-0.165875744266074	0.00571488579605923	-0.000318052719464284
			-0.000876796939393274	0.0006390287084197	-0.110795951957443	-0.933181039039533	-0.00150049797484261	0.000558120110294983	-7.47540205932041e-06	0.000521749903588798
			-0.757868194961463	-0.166501693718471	-0.00122270166018734	0.000787997903429061	-0.0286623371526863	0.0294083626895763	-0.00592754491738798	-0.00122786008335444
			0.00520373694141416	0.000753765031770273	3.82807067291218e-06	0.000424965252694131	-0.00631758790126958	-0.00174738930421591	-0.905401410400925	-0.0154925103957035
2030000000	0.11371347382116	0.0884103145709033	-0.000409618335599165	0.00063780882689497	-0.780517322072869	0.0644434021436758	0.00580284180115594	-0.00161640831616412
			-0.000214313135623873	0.000672924657404894	-0.199278445482459	-0.920025884157567	-0.00125613616391506	0.000767633353558108	7.53409190538158e-05	0.000524038309686931
			-0.779880448697655	0.068251961870681	-0.0011199172997988	0.000680973075764521	0.00408406766657787	0.10265047488045	-0.00648250861039574	-0.000365767031355598
			0.00631942948555262	-0.00163464909231327	3.62606359547528e-05	0.000435345509379866	-0.00673219648653975	-0.000250005343387956	-0.897658274078574	0.096450360954198
2050000000	0.159791093998798	0.110520983855231	-1.23852765140896e-05	0.000567331293560721	-0.714829025923164	0.29381846507447	0.00554940426257515	-0.00293892779252272
			6.8681019165788e-05	0.00040448808705262	-0.285962447959264	-0.897180404150171	-0.00106198505221206	0.000626287644658141	0.000167585830319864	0.000500785224529228
			-0.711326105052237	0.294312987426484	-0.00107210866029403	0.000571501838122809	0.0640059869260963	0.159703493475458	-0.00683352034991239	0.000793571907094916
			0.00556819920184738	-0.00330378403715703	8.48202673045476e-05	0.000449232315253802	-0.00685352043993901	0.00101476749057153	-0.874118572936369	0.210070560056304
2070000000	0.213853250900768	0.108098514056962	0.000287888432612415	0.000314035253051198	-0.579777479805669	0.48511606031046	0.00492033723611014	-0.00416513568209324
			0.000147754999104268	0.00012929268520294	-0.369244081385459	-0.864742104828236	-0.00105299009670604	0.00045954431690963	0.000256862551333978	0.00044431431110875
			-0.578503383905909	0.483129055412709	-0.00107599699781038	0.000481672404476183	0.142181832634259	0.181515128316779	-0.0067994579785515	0.002201988320825
			0.00456427237788103	-0.00431094893344731	0.000155045102309918	0.000455051312775728	-0.00663801973375598	0.00237917351420869	-0.833543046169685	0.322524335726786
2090000000	0.260974570696058	0.0758641757172441	0.000405128871977887	-7.34163622016245e-05	-0.396771185336934	0.623242186064482	0.00392200077756424	-0.00513347122166748
			9.69507548490046e-05	-0.000101264144725777	-0.447349338830212	-0.823378476311615	-0.00114611110096126	0.000395963107648344	0.000324787657232634	0.000353982398228054
			-0.397939980974673	0.622617806619876	-0.00111455959315901	0.000433238229826711	0.214631823664358	0.162841957848983	-0.00618176092839792	0.00368947822578076
			0.00355708327639483	-0.00487710025676597	0.000245410183563192	0.000435938619019295	-0.0059311369149384	0.00371078983233872	-0.775541733618402	0.430396627870416
2110000000	0.280762222371446	0.0207784851882774	0.000268481399861123	-0.000492778779404645	-0.181604173157101	0.703253404300259	0.00263197490075216	-0.00564079039905882
			-3.13741609921968e-05	-0.000274699986686085	-0.518645389792311	-0.774574595258353	-0.00122240074953862	0.000462291391878017	0.000351305760461876	0.000241679505187431
			-0.181953472216538	0.705340488728659	-0.00115461861540086	0.000437034703345748	0.257513689705025	0.113246794247793	-0.00484923329151672	0.00491141786955611
			0.00260971688482132	-0.00514590023372761	0.000341759843196063	0.00037381643162105	-0.00467668702704388	0.00475977021237475	-0.700967472628683	0.530226571814243
2130000000	0.256190776695834	-0.0346157976337098	-0.000134570421557573	-0.000786059698708377	0.058919530686571	0.718078304550513	0.0012575573203817	-0.00544875926054638
			-0.000215137275336926	-0.000406006719888556	-0.582275351046245	-0.720690108641636	-0.00117358972355585	0.000596259242208509	0.00032464377021611	0.000134563908938479
			0.0620739426447427	0.720113217565745	-0.001153213544876	0.000476911351300502	0.251955470290273	0.0557433808101417	-0.00290002207417708	0.00534607560200299
			0.00166800965238614	-0.00513777933816234	0.000413812949921687	0.000259968400489184	-0.00293452591081737	0.00517411671725836	-0.6118204407804	0.61946407621446
2150000000	0.186219043618624	-0.04944007310142	-0.000701877311955258	-0.000779142004058867	0.31626684582494	0.643075743267643	0.000260598111736822	-0.00435496961884244
			-0.000485967764361208	-0.000516042553627712	-0.638998144211824	-0.664387121335302	-0.00095165751843141	0.000646255025019099	0.000255732942840948	6.89328866207247e-05
			0.320798353950758	0.640595876125419	-0.00108222946961255	0.000496238919992516	0.191064870468575	0.0311789518308559	-0.000902374304000463	0.00444752875008254
			0.000703151583612538	-0.00463568203034071	0.000422112684238408	0.000111648634056957	-0.00104485928627958	0.00447435639431015	-0.510074935550536	0.697372277724136
2170000000	0.108668168954614	0.0269981638893395	-0.00119565569256368	-0.000386133725302482	0.542507989382301	0.43599130522191	0.000468070616519566	-0.00252804291995393
			-0.00106859393479505	-0.000537955932966631	-0.691474082264007	-0.607071659486219	-0.000680940120369568	0.000403521005721104	0.000188472698935399	6.66688733221544e-05
			0.541457486493576	0.430946890948004	-0.000971971436975982	0.000410317078876766	0.108084299949914	0.0979435663075884	-4.96035214590743e-05	0.00217481920722037
			-2.99690646571784e-05	-0.00296154215130404	0.000344783954143066	-1.77713022575064e-05	-2.10376640949277e-05	0.00235239200379937	-0.395274566882632	0.764389343910129
2190000000	0.166336286338403	0.207897329760164	-0.00133721371106463	0.000266044699597831	0.616161337036112	0.113953864811543	0.00257415745282555	-0.00111895958549811
			-0.00129320557634475	0.000447170900121775	-0.742721287309966	-0.547083676846773	-0.000752741400798004	-0.000127361530013706	0.000176987992758483	9.72718130570542e-05
			0.613808182417057	0.113457560787298	-0.000941336124649149	0.000170791719324341	0.111936211577615	0.268995233765136	-0.0014948312656311	-0.000162596309304184
			0.00277227170655818	-0.000730435905282106	0.000215282107217325	-6.14171943441414e-05	-0.00133891920253343	-0.000127575300638191	-0.263474107438106	0.817862891373816
2210000000	0.380625424930046	0.268561636191178	-0.00102421696369162	0.000838450900739916	0.47945224696872	-0.153565288305926	0.00573229273596285	-0.001774766237814
			-0.000942653561759942	0.00074427939551483	-0.792720263975994	-0.480061043777338	-0.00133395602357501	-0.000407003998862235	0.00021557288006731	8.9101503489559e-05
			0.480270402148368	-0.153299017664996	-0.00114766177806577	-0.000138879366550025	0.279624734941407	0.414411794530069	-0.00456667090995022	-0.000432015989806396
			0.00581030671348389	-0.00184324991926537	0.000125505285326805	-3.8025109368309e-06	-0.00450171545370183	-0.000458745803863074	-0.11333686955802	0.848194196523833
2225000000	0.548414507835005	0.201995276684352	-0.000618890798789563	0.0010174977278419	0.325048662296044	-0.239788135315884	0.00748417857403577	-0.00367683513202522
			-0.000713610531375879	0.000900979420865922	-0.826539063675011	-0.423293379096849	-0.00173142660544216	-0.000239348811214628	0.000235399948098401	4.29920330246869e-05
			0.324882106751893	-0.242401923316474	-0.00149032976167274	-0.000280086310564772	0.454732502495957	0.429282332677925	-0.00654042590030619	0.0010497719522771
			0.00742902028882012	-0.00369625856909942	0.000131816794608754	5.77412917392289e-05	-0.00649112105509644	0.00102217618913394	0.00680777936476007	0.849820051500508
2230000000	0.594376414618169	0.162164797895489	-0.00048533694572363	0.0010208218244217	0.277400622004548	-0.250443002242564	0.0078157763603734	-0.00443914664919137
			-0.000629960083699736	0.000935199893201633	-0.836538949436648	-0.403241051054699	-0.00180013061610137	-0.000165618770709562	0.000235474034412828	2.34068348460378e-05
			0.275897497659776	-0.253032731037295	-0.00162942586075329	-0.000288558159751002	0.510879842842029	0.416550534693318	-0.00698454877881082	0.00175636520537919
			0.00774436956903804	-0.00442434823536654	0.000147565347237165	7.07065274741357e-05	-0.00695194241934057	0.00171695435188063	0.0473561672644327	0.846025850874636
2235000000	0.633421876282681	0.11620407482689	-0.000363187847539313	0.000999856251933727	0.233235458412939	-0.254844957596754	0.00800974203597368	-0.00520531203687101
			-0.000545012131742728	0.000958955740150115	-0.845758333181419	-0.382766237708415	-0.00185119971385962	-0.000113947499896627	0.000231837740283477	3.30240714000092e-06
			0.230656746000974	-0.256588500841856	-0.00177373676537015	-0.000273442491353483	0.563586440233817	0.396518579823283	-0.00730568934387532	0.00252242793996538
			0.00793510928522232	-0.00515513400017995	0.000167725916905685	7.69064868612833e-05	-0.00730339464175098	0.00248052878067316	0.0879024794170999	0.840078202540058
2240000000	0.665145708952111	0.0657221178585099	-0.000257229929816609	0.000959266004938989	0.192678946914664	-0.254127763241965	0.00807103898821186	-0.0059392780504773
			-0.000460289959770544	0.000972367491275358	-0.85415118719253	-0.361984515626844	-0.00190936161342946	-8.49646436116356e-05	0.000224611598681061	-1.64524303814754e-05
			0.189757250815554	-0.254603267661722	-0.00191807380925704	-0.000233996484021252	0.611778565846074	0.370323302464557	-0.00750495623746766	0.00332285720737196
			0.00800503748399804	-0.00585590209330939	0.000190137457157324	7.53142318603454e-05	-0.00753632087891424	0.00329795520912895	0.128327114705206	0.832004300158013
2245000000	0.689498609814003	0.0121500445971989	-0.00017061647404332	0.000904671001194261	0.155925441729975	-0.249085384066841	0.00801100354241532	-0.00660659656559997
			-0.000377041939106307	0.000975904621486007	-0.861705416841211	-0.341017747076582	-0.0019901805254601	-6.07968363627426e-05	0.000214091086804756	-3.51167249465045e-05
			0.153403988861897	-0.248460673128456	-0.00205724193488826	-0.000170881070156733	0.654694019497408	0.339386949977732	-0.00758814665738621	0.00413648703053803
			0.00796397525987282	-0.00649508055921014	0.000212431571867102	6.55992940622451e-05	-0.00764192704179813	0.00414613763355491	0.168528879846989	0.821832645141325
2250000000	0.706673241533352	-0.0433027332925637	-0.000104697232913	0.000842065064084953	0.123271672452715	-0.240558442136425	0.00784639142301661	-0.0071746527695989
			-0.000296162724366801	0.0009701786188609	-0.86844261884876	-0.319982629875617	-0.00209026712194289	-2.10121580195826e-05	0.000200687802780857	-5.20899257201986e-05
			0.121525407444436	-0.239340351763183	-0.00218647752594564	-8.60889932780953e-05	0.692120188608196	0.305228217438469	-0.00756401755582411	0.00494643244297576
			0.00782684946548076	-0.00704254581407435	0.00023227419375798	4.81540500325586e-05	-0.0076218601997825	0.00499708363531706	0.208420442384111	0.809588922257398
2260000000	0.72092809619337	-0.156139989666822	-3.18212412668394e-05	0.000715198609694999	0.0705112149104078	-0.216949227444203	0.00729441698984373	-0.00789041284386042
			-0.000142943396567198	0.000932819469844117	-0.879691039889688	-0.278088414248626	-0.00229375983344064	0.000131453691655812	0.000167201636869519	-7.91999960831135e-05
			0.0700997954592615	-0.215817052379583	-0.00240042596975238	0.000135353377141023	0.751841677371244	0.231977894390549	-0.00723565160307574	0.00650795322545114
			0.00734709153676519	-0.00774907245469056	0.000256789908027242	-5.20888018356687e-06	-0.00725928105817288	0.0066255612730316	0.286965925669275	0.77897313270961
2270000000	0.711375793455588	-0.267577886154648	-1.97691502734198e-05	0.000614132469489152	0.0325456481561457	-0.189980673453358	0.00664522715395211	-0.00785183785085906
			3.88687798231948e-06	0.00085495748400187	-0.888504740633994	-0.236808941048172	-0.00244427986622617	0.000350819558163646	0.000128544036542016	-9.51878959581378e-05
			0.032633869147884	-0.189464455448662	-0.00254185182169272	0.000398649377166406	0.794789920096425	0.156721339059906	-0.00660642860795783	0.00794759399676592
			0.00677414416305791	-0.00777382720586653	0.000253205317727089	-7.13504939625017e-05	-0.00656742993580701	0.00810285076749207	0.363418252446844	0.740383087202415
2280000000	0.676325272281213	-0.380008260839891	-3.93201403688301e-05	0.000555322902987401	0.00590802261589859	-0.163440923057119	0.00621356288352907	-0.00683280407492043
			4.29162495585843e-05	0.000590620191233623	-0.89553784209743	-0.196230480985181	-0.00252985163438869	0.000591202815852467	9.10405382925985e-05	-9.87153368367202e-05
			0.00608757664258953	-0.163797249302803	-0.00261055695622543	0.000671817873475218	0.824496692700853	0.0821986905089485	-0.00576295333214663	0.00926335163363849
			0.00601929819679645	-0.00692735768182585	0.000220130529414317	-0.000134868474116077	-0.00562504133246678	0.00942232987500666	0.437749101895614	0.694459126072454
2290000000	0.6228578690593	-0.467259757235523	-6.34219235492554e-05	0.000537667884090167	-0.0125315141549746	-0.138954234949882	0.00640556284620953	-0.00454906409399613
			4.05107480532145e-05	0.000723445176902063	-0.901266048370754	-0.156130809581113	-0.00256261100126576	0.000826777490441082	6.67677750813484e-05	-9.84471538775072e-05
			-0.0131773862392444	-0.139089815008805	-0.00261895296857278	0.000931103834214846	0.843595767495352	0.00970213168743572	-0.00472190193168714	0.0105841756797315
			0.00666700956291826	-0.00424227779339559	0.000163479552411316	-0.000183529382055561	-0.004466835545703	0.0105928335518345	0.513736331830787	0.640713995571909
2300000000	0.555667296455289	-0.553632801876222	-7.41255150221009e-05	0.000549628850208257	-0.0251654996133883	-0.11703208947517	0.00815210390864779	-0.000575565816907992
			0.000129078994685613	0.000636703937401432	-0.905905057660393	-0.116163415103473	-0.00255704400756325	0.00104620814282362	2.86525282729556e-05	-0.000116356657653751
			-0.0259589689364715	-0.116893016066366	-0.00258449776212416	0.00116372686452973	0.854045752805782	-0.060151743590339	-0.00313397073496583	0.0117659402994125
			0.00856448318254749	-0.00064053110347753	9.27186911488661e-05	-0.000210576276200677	-0.00309759721850588	0.0116189153523431	0.587490734539511	0.565492803631808
2310000000	0.469965090338066	-0.627940571933246	-6.35310813545762e-05	0.000576611102961807	-0.0337412162466313	-0.0976423301705878	0.0127081285252584	0.00481553438334501
			0.000162172068622916	0.00053724981327156	-0.909445573998018	-0.0760076656843679	-0.00252547406264227	0.00124532100002552	-2.50254665988413e-05	-0.000104714855492929
			-0.0345484142017546	-0.0971654515879861	-0.00252380156140616	0.00136619597507016	0.857299534298035	-0.127093981226051	-0.00141480485759043	0.012488833031613
			0.0129819638211959	0.00452868933635193	1.74922490650438e-05	-0.000214427109906658	-0.00149852085772917	0.0124919438307406	0.644563311459266	0.480405517932086
2320000000	0.366472110668377	-0.68652912642093	-3.13518358876219e-05	0.000605748060192577	-0.03950802328269	-0.0804764495496985	0.0215927621491266	0.0114450347901494
			0.000157247122033599	0.000441127207422254	-0.911736862938093	-0.0354461179779901	-0.00247809300034687	0.00142359001498931	-6.55383593358161e-05	-7.73396895400851e-05
			-0.0401415678751123	-0.0796568461711583	-0.00244968873721357	0.00154092162102705	0.854420309823515	-0.19101797020166	0.000428173821920907	0.0130503218174157
			0.0217032706445974	0.0110288420272266	-5.43319589137078e-05	-0.000197100930191825	0.000370986065798678	0.0131789274195773	0.69330996802545	0.387668563372591
2330000000	0.245057805643503	-0.724049167816153	1.83086757396585e-05	0.000627879685279882	-0.0433224763423685	-0.0650645252571473	0.0374561267473319	0.0183397407776284
			0.000116465128817017	0.000358323884899058	-0.91256709189478	0.00561874187010743	-0.00242367859612989	0.00158294716821648	-9.54145985892753e-05	-4.30511872636939e-05
			-0.043593784587011	-0.0639975149829547	-0.00237060085803439	0.00169308130674568	0.846172637127085	-0.251854878822241	0.00254282570160189	0.0133931028364251
			0.0373526301511799	0.0178366290551918	-0.000117298638588854	-0.000162521235099512	0.00257056275430574	0.0136021435394466	0.731201006176246	0.283202841437283
2340000000	0.106494606496568	-0.731750946668612	7.95831237946562e-05	0.000637684324708896	-0.0456793972427416	-0.0508176217367929	0.0640158036501735	0.0225896446041246
			4.07765350466955e-05	0.000302670804250023	-0.911719436687968	0.0471807476898099	-0.00236999117332579	0.00172798459496808	-0.000114546522214939	-3.73156349411951e-06
			-0.0454483893059376	-0.0497132485854117	-0.00229122941797542	0.00182847783701129	0.833108346372053	-0.309470299998029	0.00500566187260906	0.013367550098211
			0.0636243719367405	0.0220781552825516	-0.000168208524349617	-0.000115236089588891	0.00516344829275795	0.0136018827319635	0.752767703597013	0.165918232627184
2350000000	-0.0442445285179681	-0.695756518788289	0.000146516282589649	0.000632962018040152	-0.046633591825052	-0.0370739633518819	0.105534563486762	0.0172331124934604
			-6.39563478698774e-05	0.000294713612689433	-0.909003274638207	0.0891572969875408	-0.00232302288283794	0.00186720812694046	-0.000120513292957914	3.80480993146353e-05
			-0.0458968110139818	-0.0362546778228336	-0.00221353366557072	0.00195236736556908	0.815688422086761	-0.36355970619925	0.00784402308241559	0.0127148875535535
			0.104800045242286	0.0168693144099832	-0.0002056406157461	-5.96408037213977e-05	0.00815638937068178	0.0128796727553138	0.750146483360379	0.0370083690228515
2360000000	-0.190244736276674	-0.597211115444828	0.000213933679083792	0.000613710766573665	-0.0456001029974847	-0.0233144512299467	0.163508189306222	-0.0122466565603155
			-0.00017643411390169	0.000361786058400069	-0.904267374815056	0.131415678567876	-0.00228336732910532	0.00201434033084501	-0.000110267013353591	7.6372889010347e-05
			-0.0446298806626048	-0.0231147846944471	-0.00213770239754475	0.00206896974486229	0.794528377449501	-0.413580163790327	0.0109181861911142	0.0110108648499291
			0.162491933203565	-0.0122250523608955	-0.000229432504362159	4.06447976937524e-07	0.0113265278822351	0.0109662973778203	0.712460566526103	-0.0971609733135619
2370000000	-0.289506401897223	-0.423282303665021	0.000277772140168449	0.000581300250966135	-0.0412970069774831	-0.00985339606850665	0.225939904000607	-0.0893314072733725
			-0.000242456737303405	0.000524108525094762	-0.89740241001807	0.173794017329366	-0.00223820887097997	0.00218474356385021	-8.43862616885722e-05	9.95699914156565e-05
			-0.0406709420282063	-0.0102860302017249	-0.0020629028411563	0.00218137495070096	0.770822559032901	-0.458961583019038	0.0136281665680393	0.00775469845364019
			0.224934775534366	-0.088760523776747	-0.000240239692344675	6.17189236018213e-05	0.013903409073993	0.0074267574034399	0.62939479424507	-0.218645795031457
2380000000	-0.275457976105704	-0.204759783371614	0.000335105041325993	0.000537840023467714	-0.0328135945512139	0.00120632734758648	0.250015516749941	-0.230135316326685
			-0.000174564146245565	0.000746188870968881	-0.888338123394247	0.216116280844944	-0.00215790068635135	0.00237759842917118	-5.66655893873118e-05	9.37458861922617e-05
			-0.032887154319793	0.000765933778364747	-0.00198780395185389	0.00229164319077194	0.746455258949548	-0.500014362623702	0.0146602804818823	0.00299327810604739
			0.249327014331741	-0.22923164962803	-0.000239204185641362	0.000121778588995453	0.0145419922024677	0.00263191980108478	0.507086015942063	-0.295028875806437
2390000000	-0.124631367382725	-0.0479294312145452	0.000384020238658356	0.00048574040511899	-0.0219207273196011	0.00701707551374133	0.175910300468808	-0.39815236637292
			6.15015062658854e-05	0.00089409055728369	-0.877038385190624	0.25820232180407	-0.00202285786933781	0.00255780793688496	-5.61549987141788e-05	6.28476005860527e-05
			-0.0221724117560435	0.00711948889802933	-0.00191091518023873	0.00240097855075096	0.722586766483329	-0.538700511617036	0.0128737660780022	-0.00168255209829812
			0.175303781701935	-0.397135840538255	-0.000227722719823011	0.000178669539371724	0.0125674940570315	-0.00165822173302069	0.387157128591201	-0.304915043792636
2395000000	-0.0256114118465007	-0.0254255208102647	0.000404957925165214	0.000457214069117331	-0.0168069027456263	0.0077925445387594	0.0983474229033741	-0.464478822929288
			0.00020837315111083	0.000898109430902664	-0.870546943665639	0.279100962754558	-0.00194132022129207	0.00262973996376932	-7.19523713854783e-05	4.8154144073367e-05
			-0.0168960150576547	0.00806386248130773	-0.00187134258913678	0.00245548431574658	0.710550105515423	-0.557826650420729	0.0111409161273988	-0.00324832690840585
			0.0976945754595286	-0.463232077533202	-0.000218531765139622	0.000205470909537045	0.0109407167314641	-0.00303611284293397	0.344095423522225	-0.292640400675962
2400000000	0.064837755004136	-0.0406123424838487	0.000423443909755544	0.000427429184399212	-0.0124384129723526	0.00754364311267068	0.00395159688377482	-0.506623495773703
			0.000343690171850624	0.000854796269493806	-0.863495859018423	0.299874254522501	-0.00185827971805839	0.00268724506863283	-9.63631395716474e-05	4.03758986206674e-05
			-0.0123372272713191	0.00783089611280256	-0.00183079125260529	0.0025099136441739	0.698094937107441	-0.576901550929135	0.00924219779899068	-0.00411210614703177
			0.00337968332606405	-0.504986899908022	-0.000207292813144765	0.000230989291097574	0.00922415853169531	-0.00382044709306748	0.314744732203379	-0.278398869264382
2410000000	0.176921894723142	-0.138631549839219	0.000452959410576503	0.000365182127203402	-0.00626554994637552	0.00553141346029509	-0.194311093416928	-0.514449146038463
			0.000525369351970722	0.000684504324503315	-0.847727071274816	0.340960309754622	-0.00170669829496566	0.00276874861352951	-0.000155124989988814	5.32872166403048e-05
			-0.00600230774785874	0.00560752347612381	-0.00174614624230136	0.002618477122297	0.6711859959102	-0.614373092649833	0.00599015043736727	-0.00414378082080214
			-0.194010969272157	-0.512069341101017	-0.000179414907913245	0.00027775926171881	0.00625544090477972	-0.00400876090920401	0.282927090235719	-0.264421964072529
2420000000	0.193901935554734	-0.250696357799802	0.000472643765655477	0.000301031507052705	-0.0028023280852727	0.00323518519956305	-0.363562905834472	-0.446979829469769
			0.000587279880435511	0.000500643645295825	-0.82976817161326	0.381297034398734	-0.00158714520113842	0.00283104833590141	-0.000205776147785052	9.92684066373163e-05
			-0.00263736986835507	0.00315785764129907	-0.0016559091365995	0.00272633430611917	0.641363588404488	-0.649730824846628	0.00410384440411296	-0.00311403624215812
			-0.36185079477533	-0.444683089873084	-0.000145533007079789	0.000318343922035328	0.00434326699032093	-0.00324236172808255	0.257358152019826	-0.275570433438518
2430000000	0.15259643197067	-0.329557594193476	0.00048292988155226	0.000236725607843049	-0.00088155065751348	0.00145239139911558	-0.490304360460689	-0.338609636767721
			0.000582650832674178	0.000361868416384456	-0.809671422693068	0.420730442303021	-0.00149552813302446	0.00290124690436935	-0.000236895450246266	0.000165096086099515
			-0.000840542067960949	0.00137566307043802	-0.0015592431523091	0.00283290008940523	0.609253322884103	-0.681859016526826	0.0033617619769297	-0.00205685742778075
			-0.487477697493837	-0.337300700832195	-0.000107000873053622	0.00035238180885814	0.00339226579445332	-0.0022750858762078	0.218088222201573	-0.297990564850698
2440000000	0.0888032263774055	-0.366526981694815	0.000484495277802368	0.000173720052188898	0.000302326351628643	0.000206251735094925	-0.577645685396713	-0.20901894391475
			0.000563958912250394	0.000272017055477285	-0.78750234980863	0.45911651959922	-0.00141483039990074	0.00299767109113028	-0.000246527922810427	0.000240189513418937
			0.000287858970824516	0.00018917834942292	-0.00145554348976476	0.00293742698127486	0.575992955262677	-0.710250000175051	0.00327365882944739	-0.00137741323182801
			-0.574450900993461	-0.209126466913825	-6.50647797422644e-05	0.000379728529224565	0.00313441144402248	-0.00147792386392268	0.16264764291954	-0.315499609611297
2450000000	0.0251270793489505	-0.368279845830259	0.000478174883569877	0.00011318793964851	0.00115208780977959	-0.000708918107976177	-0.629506854608663	-0.0677274635451048
			0.000562954332865855	0.00020783927407508	-0.763337446374904	0.496321343200635	-0.00131773646512485	0.00312618745113482	-0.000235465080208289	0.000317581742106253
			0.0011310210588104	-0.000672435789564417	-0.00134442291467461	0.00303907228251099	0.542941756307869	-0.735140838482673	0.00345285858416583	-0.00114194379692386
			-0.626706016731459	-0.069162224272282	-2.08567501307974e-05	0.000400410592772152	0.0033253255381257	-0.00104746709573468	0.0972205838900142	-0.317597452724219
2460000000	-0.0263635961178583	-0.345839726944143	0.000464894326536168	5.60401837992079e-05	0.0017866984146309	-0.0014982328247752	-0.647485483824292	0.079123558533316
			0.000585884557527385	0.000134021171549808	-0.737262331276032	0.532220972489047	-0.00117399838475733	0.00326888887797981	-0.000205088433635314	0.000392082626281184
			0.00178297073318037	-0.00142225810856791	-0.00122569101087864	0.00313694832262546	0.511131901987817	-0.757785570800458	0.00364767123936292	-0.00128466179252709
			-0.645594625779994	0.0767995023390462	2.46057133393876e-05	0.000414588518439481	0.00369330153726224	-0.00111147259840196	0.0309830638320059	-0.299866057967177
2470000000	-0.0613552444888666	-0.310399970368373	0.000445620053822499	2.95045082205714e-06	0.00216479330564345	-0.00223909248614332	-0.632019146473434	0.225411186637001
			0.00060639219333219	2.00422565000019e-05	-0.709370268915827	0.566701208733305	-0.000977643722448632	0.00338261428665255	-0.000157298693450428	0.000459208981626684
			0.00219898349110048	-0.00215009816835873	-0.00109933064083739	0.00323015913789165	0.48019044308514	-0.779980437232549	0.00370705630884427	-0.00169356412105238
			-0.631227224922983	0.222752648120162	7.04159858246052e-05	0.000422527704190106	0.00389725269706352	-0.00164311421286147	-0.0268221400256397	-0.263063157463137
2480000000	-0.0810753932603562	-0.270221089941973	0.000421322987779594	-4.56189191258364e-05	0.00226620169565383	-0.00285713891033905	-0.58411944922518	0.364205635311494
			0.000573281427728433	-0.000126649639456854	-0.679760983072276	0.599657273605502	-0.000765040826356577	0.00343614500037635	-9.48365363345405e-05	0.000515031778696247
			0.00231833442201088	-0.00279730529054411	-0.000965473678415065	0.0033178262776598	0.448347387322599	-0.802304119429902	0.00355374958249537	-0.00224411198161262
			-0.584357206938711	0.36172513208487	0.00011577240528198	0.000424575783177369	0.00370056841922111	-0.00237870678372214	-0.0687908415628402	-0.212018356300898
2490000000	-0.0879378400694604	-0.228961386260122	0.000392952933254262	-8.93923980887517e-05	0.00218875525309153	-0.00327021542896385	-0.506551899399544	0.488310018557589
			0.000464557291168972	-0.000243995204512694	-0.64853971783223	0.630993429170196	-0.000578543648157824	0.00344288162345545	-2.13691957668924e-05	0.000556501692995793
			0.0022043067464084	-0.00322328917629909	-0.000824377150373885	0.0033991057186766	0.414422129176105	-0.823556776857722	0.00316781779284082	-0.00281744010301546
			-0.507538445778077	0.486440616202347	0.000159971113397001	0.000421145506748357	0.00314020927787867	-0.00301683329587478	-0.090693916187957	-0.154166740313534
2500000000	-0.0819727118539476	-0.18915659322401	0.000361421472045573	-0.000128259883784777	0.0020575613812982	-0.00349091640358974	-0.40416039215537	0.59132729978825
			0.000332314325272795	-0.000279715901465139	-0.615816522982373	0.660622541002951	-0.000428984643876304	0.00343598921259024	5.87884482946791e-05	0.000581842143490071
			0.0020454454169594	-0.00339276484033612	-0.000676400344616693	0.00347319716581045	0.378772422115935	-0.842399834108364	0.00257304133756394	-0.00331394787022458
			-0.405379424050161	0.590297084056595	0.000202398290819194	0.000412702560676393	0.00239028988067992	-0.00343023087299327	-0.0920670096840737	-0.0977420907013284
2520000000	-0.037339269622932	-0.133143947140892	0.000292272172418487	-0.000191569504991281	0.00186346925751104	-0.0036057557542771	-0.151515562918304	0.717838779501538
			0.000208914654493394	-0.000223078559621015	-0.54632594629004	0.714450955832076	-0.000189707865263212	0.0034514355900172	0.0002218807002517	0.000584182225541457
			0.00196929263587661	-0.00342562346349178	-0.000361625260004395	0.00359683938696242	0.305978307568092	-0.871686364360963	0.00098104397401458	-0.00382374523174968
			-0.151798212301871	0.717634621446719	0.00027988534940016	0.000382866810774721	0.000782775604646365	-0.00364686319941749	-0.0475866513481615	-0.01595078544372
2540000000	0.0180130352077112	-0.123021492120182	0.000220126247935156	-0.000237522420363937	0.00180049042651822	-0.0035838637354578	0.11867305161505	0.732966790844025
			0.00021543134113657	-0.000242438645607689	-0.472255328702552	0.760595151612066	4.97145258745156e-05	0.00351084260497576	0.000366440977007609	0.00053318570244029
			0.0020248916789643	-0.00350852115790129	-2.52733797086793e-05	0.00368310683184911	0.234738933137694	-0.891947611251214	-0.000715893288139317	-0.00356320342131652
			0.118918246875693	0.731754511156734	0.000344828424574384	0.000339712789480966	-0.000700145921211197	-0.00327326003111014	0.0200286969298191	0.00486699956583614
2560000000	0.0538287907309575	-0.143416238925398	0.000150358544782027	-0.000270671165309455	0.00180394550162005	-0.00358482504092891	0.3627837473804	0.65226736747481
			0.000181733018475539	-0.000355874773528339	-0.394661574876214	0.798596759176808	0.000328481584943544	0.00357617755228235	0.000478982682631191	0.000448494147361038
			0.00200672770706579	-0.00365910210321829	0.000328132097506674	0.00372615420076596	0.166004094150705	-0.906232581637538	-0.00211964457519584	-0.00266190591914697
			0.361790594656274	0.6501255402218	0.000394830884269022	0.00028898629877175	-0.0019283343457838	-0.00246093028847548	0.0670946340695502	-0.0252903910100093
2580000000	0.0642473654377893	-0.171103342577978	8.71283484420241e-05	-0.000300317551209958	0.00180557509940906	-0.00365868136992491	0.555419955085129	0.501270299787359
			5.52820700575355e-05	-0.000474763804742543	-0.314812386540736	0.828039685418515	0.000646013197986204	0.00361103037233227	0.000558314727136714	0.000347738443898728
			0.00189156764350779	-0.0038160059093837	0.000693797766404455	0.00371733871175746	0.0990255013902634	-0.916504939208773	-0.00303610188103823	-0.00137099769513872
			0.552632899037432	0.499861781559466	0.000428756215859287	0.000239134043105728	-0.00280375346516083	-0.00132839299964184	0.0721551455368936	-0.0761103305273814
2600000000	0.0571297020433061	-0.191132715107016	2.87034108080106e-05	-0.0003493507275578	0.00175040548687945	-0.00380700990412334	0.684608179682878	0.305176559854926
			-0.000139522135543554	-0.000530787039045725	-0.234728254303244	0.848575702097279	0.00098230945230951	0.00359185081134834	0.000609488374754121	0.000242441715479299
			0.00169736749773288	-0.00395032091324525	0.00106269015797783	0.00363598286802661	0.0325038672259339	-0.923625715662599	-0.00342338423308644	7.15462006260796e-05
			0.681182012540297	0.305817078102275	0.000450465806488357	0.000207129067221295	-0.00326428059981713	-9.2374440060414e-06	0.0370128000256753	-0.116552790828234
2620000000	0.0438836962525317	-0.198502184134072	-8.739981905438e-05	-0.00047697429445809	0.00159647891016158	-0.0040049925601691	0.745989069701596	0.0863242453013139
			-0.000351240178640237	-0.00049545942551267	-0.15951397522747	0.862119520224834	0.00130423351839475	0.00351049454847	0.000639108693243676	0.00013820808462864
			0.00144424773432342	-0.00404742240777333	0.00136912837521416	0.00342445935048108	-0.0351048580154284	-0.927499355702782	-0.00332092609760401	0.00148094845342162
			0.743629641183384	0.0888496031941581	0.000507840373122672	0.000230287602466694	-0.00329482407715108	0.001366683450277	-0.0212261212161233	-0.125905871336361
2640000000	0.0339668676933217	-0.195575420127121	-0.000511960129620768	-0.000407384667189767	0.00130764154253485	-0.00420256696386039	0.739985993986926	-0.135154749147303
			-0.000528084280051436	-0.000375768754739778	-0.0818745138205332	0.88732214580758	0.00156405504559502	0.00339342271146622	0.000652681661728693	3.62854742087676e-05
			0.00115266707432372	-0.00409888688322552	0.00135021013735238	0.00334442662851569	-0.105638982458741	-0.926231940655265	-0.00280627226572145	0.002723287541234
			0.739576731608567	-0.132115091174617	0.000754227613572217	0.000103803050683578	-0.00289379573675633	0.00269810542781357	-0.0793663143820562	-0.0976154394759661
2660000000	0.0323626658127079	-0.188784211688545	-0.00049899595871586	-6.90357684966697e-05	0.000896068582975172	-0.00428267767317941	0.67130218508881	-0.340818599530259
			-0.000633994121717866	-0.00020474991393563	0.0174635769554349	0.889269745583187	0.00178355907020305	0.00335506152094554	0.000653244342295516	-6.46351382632808e-05
			0.00084301971893251	-0.00410307566837599	0.00172500144275886	0.00350248018523016	-0.176678659968588	-0.913925245120295	-0.00197558153646909	0.00370612744181427
			0.672365503756838	-0.3386909717984	0.000676044756947127	-0.000168795837550032	-0.00201281939993947	0.00381417289567598	-0.116149604813305	-0.0385403084096243
2680000000	0.0389303863540588	-0.185352346710805	-0.000432451781780051	2.50808940613165e-05	0.000533641378558827	-0.0042412935931995	0.549034587612621	-0.514540765771075
			-0.000658524813857577	-2.80584529487808e-05	0.104087451993784	0.875884317122662	0.00215003393701308	0.00331197536695227	0.000640850653312673	-0.000166559132528928
			0.000532181281628176	-0.00406557891379665	0.00213720315913258	0.00338619107247093	-0.238283651064741	-0.896062052644629	-0.000934196146529028	0.00437302632071886
			0.55029364346701	-0.513763100517805	0.000572133299858766	-0.000262873597236481	-0.000897795322820798	0.00444005474076761	-0.118207032934347	0.0349434105563122
2700000000	0.049334540313922	-0.190460129215974	-0.00041154978272291	8.13578351901356e-05	0.000179693393205437	-0.00419787996059335	0.386187778903856	-0.643867533428374
			-0.000618836441729337	0.000112527620762249	0.18537117676767	0.856980642930977	0.00250480624098122	0.00311163607588452	0.000612885627793078	-0.000270392332032447
			0.000229844005440974	-0.00399633876508009	0.00247765979943069	0.00319731474579458	-0.298867539483323	-0.87993403013786	0.000211118892502447	0.00470092817437347
			0.386674760385601	-0.643735107402389	0.000497015834657016	-0.000325722617467338	0.000209109869724834	0.00475641438912489	-0.0830444793764458	0.102792263381724
2720000000	0.057187104914044	-0.205511156464193	-0.000405503070781763	0.000134971047953068	-0.000197593666640986	-0.00409490444394464	0.198253912246876	-0.721219022616301
			-0.000552155635379739	0.000194111411550822	0.263178387709682	0.832231300096654	0.0027721304107356	0.0028650225057428	0.000565182572939085	-0.000374538207773608
			-6.2201634066865e-05	-0.00390443588943329	0.00277233324357646	0.00297640712396662	-0.361144520053041	-0.859783005067913	0.00136031076281668	0.00469691018988673
			0.198040277288628	-0.72064937330189	0.000428197286201679	-0.000378735268427218	0.0013507663790657	0.00480546783993777	-0.0185739290933973	0.147388847636781
2740000000	0.0565671224238725	-0.227940833857839	-0.000402489820106487	0.000190111021680481	-0.000551320853304557	-0.0039133067781632	0.00125811522779337	-0.744253344950043
			-0.00050110581510541	0.000220684351971477	0.337487857366712	0.80159505550745	0.00298129623741437	0.00261957274752825	0.000493677039300591	-0.00047424155294686
			-0.000346841252809791	-0.0037935656941522	0.00303083448945253	0.00273296688491792	-0.422868429586233	-0.833844940924572	0.00242708869943375	0.00439251352991246
			0.00126974770934906	-0.742768501816068	0.000358250180633166	-0.000423491020178951	0.00247015545469423	0.00454879451061717	0.0602380292478588	0.15805096546496
2760000000	0.0439919139859793	-0.25235013564109	-0.000398157886289039	0.000246863868615702	-0.000840563470571572	-0.00367327386079297	-0.190049256802767	-0.7152637251263
			-0.000497307894672039	0.000221799613697276	0.407973934372136	0.765335954093786	0.00315589427496372	0.00238810124082348	0.000396149663413714	-0.000561814960964939
			-0.000625993875574792	-0.00366089176623801	0.00325640151636064	0.00247207441163335	-0.482447796954874	-0.802186469908766	0.00334303701402216	0.00383636758599079
			-0.188889003104941	-0.713398262365949	0.00028510190429575	-0.000459291761666559	0.00347539499795925	0.0039886058464446	0.136089506504702	0.132871363817835
2780000000	0.019383297762787	-0.272291428907785	-0.000390855542797886	0.00030483498558092	-0.00104058592489019	-0.0034167136647164	-0.36335236429334	-0.639956960503227
			-0.000547641394506399	0.000243330788225068	0.474291865939221	0.723860057954205	0.00331608882946669	0.00217460754357486	0.00027364739689009	-0.000627597721021794
			-0.000895286508834612	-0.00350024377535654	0.00345034674760786	0.00219807255975584	-0.538730950676968	-0.765330401044565	0.00405830996258214	0.00308703628312011
			-0.360932339882675	-0.638835527992547	0.000208533780741858	-0.000485260164402778	0.00427151849889201	0.00316061076878084	0.193755039251287	0.0779507442766678
2800000000	-0.0138802313006076	-0.282153311694488	-0.000379997300984167	0.000363783755547364	-0.00115346167134727	-0.0032061354707868	-0.509167543887003	-0.526122714182885
			-0.000624306821189289	0.000331856015158609	0.536145951127423	0.67763999785105	0.00348516713137584	0.00197391607247937	0.000131386151937737	-0.000661313248333511
			-0.00114179068387265	-0.00330927938765753	0.00361359698585835	0.00191520366940825	-0.590763588506492	-0.724206164624352	0.00453981281371438	0.00220766651505806
			-0.506349719278636	-0.526575318721846	0.000129044830627642	-0.000500596205461914	0.00476198015880227	0.00213457636377533	0.223091986753725	0.00491862910027674
2820000000	-0.0496715920839086	-0.27909697238587	-0.000365403543667835	0.00042375790020937	-0.00124716263738212	-0.0031145174784292	-0.620675880278403	-0.382578212603769
			-0.000659572822006793	0.000508786329395875	0.593310702996084	0.627175408067827	0.00368742677332163	0.0017561986253565	-2.07567369982488e-05	-0.000653428372766329
			-0.00134848817449782	-0.00309951885372804	0.00374733236193147	0.00162771194908124	-0.638094183990447	-0.680536406766063	0.0047680659246446	0.00126299459239335
			-0.61868659764942	-0.384457171167671	4.74462822955726e-05	-0.000504537803126364	0.00485084075080473	0.00104676312993026	0.220336740748018	-0.0721581423678086
2840000000	-0.081360448257174	-0.265233984498066	-0.00034695730778301	0.000485132229673715	-0.0014991901355018	-0.00309706193173668	-0.693305610100084	-0.218542493916576
			-0.000561849899686816	0.000721550122738196	0.645639030075133	0.572965162674282	0.0038959690552182	0.0014523307173018	-0.000167435897258006	-0.000596087310655714
			-0.00151345114629928	-0.0029031252416354	0.00385335518962886	0.00133981366934417	-0.682634038187669	-0.636331977921326	0.00473270269515436	0.000319013433395876
			-0.692776644468669	-0.220821462965544	-3.52629577742465e-05	-0.000496254473387655	0.00455631645689881	0.000167363310573926	0.187961318091263	-0.139604270176009
2860000000	-0.108128802902801	-0.247335150686846	-0.000324343793403683	0.000548625067902567	-0.00186217968836469	-0.00286264082312583	-0.724358191246388	-0.0434093140050996
			-0.000328806944264243	0.000798060004793136	0.693065076916765	0.515480432766808	0.0039907689323608	0.00109433726678223	-0.00028337810618678	-0.000483787454563146
			-0.00168448928482192	-0.00274302114762746	0.00393441892520823	0.00105557863461544	-0.72742857713719	-0.588757134694856	0.00442311983825381	-0.000549539850511286
			-0.724947772192043	-0.0451071089522333	-0.000117857308403741	-0.000474716853538346	0.00422476573971917	-0.000399405726350662	0.133748646309421	-0.18608102638486
2880000000	-0.137892128714784	-0.223699909304301	-0.000296755470422554	0.000615280264050448	-0.00201988041818458	-0.00250684238480059	-0.713006164336458	0.133269098254252
			-0.000220711994622706	0.000671893543823222	0.73560092990401	0.455131250934689	0.00402098546377156	0.000813655413030823	-0.000310643552907052	-0.000328972964327355
			-0.00190468812399808	-0.00254282852014851	0.003994619114246	0.000778646850682377	-0.768502486707369	-0.534864939986835	0.00382081827594904	-0.00119786793459067
			-0.714004923074435	0.132716989732713	-0.000198680784963747	-0.000438569588245765	0.00392099727245671	-0.000943498749670468	0.0713071054956518	-0.203535418467431
2900000000	-0.163174776999226	-0.181730882136556	-0.000262480256213557	0.000686333809497201	-0.00205919765323536	-0.00225752797042932	-0.660502885129588	0.303053100526041
			-0.000318230871775587	0.000671508903635732	0.773318883555645	0.392220368450912	0.00408022793196189	0.000570690523564723	-0.000224465417797888	-0.000316212490812268
			-0.00205652146865865	-0.0022529940842509	0.00403985828640137	0.000511588982775961	-0.803553237319963	-0.477788194164988	0.00325997064511642	-0.00131309634829608
			-0.660244820967386	0.303205755572719	-0.000275213736255117	-0.000386083965491097	0.00347461746413797	-0.00143254152159395	0.0232452137727743	-0.20111912994971
2920000000	-0.167554651248073	-0.13012166242434	-0.000218340686362733	0.000762764210257475	-0.00211208050659022	-0.00209909623483294	-0.566174541954126	0.456768932314712
			-0.000304785093450715	0.000849872912136254	0.806298348363793	0.326883166319088	0.00416146057773278	0.000312314966559182	-0.000364226104523163	-0.000328175135969396
			-0.00209209638451175	-0.00201003208930171	0.00407819148989795	0.000254567664964525	-0.833640245642072	-0.419253870162681	0.0030479718481181	-0.00165767855694101
			-0.565601719579697	0.455844190756876	-0.000343326670575315	-0.000315405000009939	0.00292902116147294	-0.00175117631811893	-0.0296851572758841	-0.195741952650342
2940000000	-0.153572916463778	-0.0840341182316496	-0.000159163882146404	0.000844143919649679	-0.00221396055604215	-0.00197129940474244	-0.435672373491783	0.582212380593954
			-0.000124627795402013	0.000967764095793788	0.83449847597934	0.259035427504037	0.00424176253112676	2.39743857833083e-05	-0.000430179209797749	-0.000183815095396002
			-0.00212405219914016	-0.00187739227764566	0.00411931366181841	2.90450797042849e-06	-0.859610373997885	-0.359479025013634	0.00248710055520892	-0.00196676160984207
			-0.435620898969925	0.580590581277924	-0.000396290423286295	-0.000225581315606444	0.00237845287024419	-0.00188393869093932	-0.0745519775492363	-0.165105265371488
2960000000	-0.130401410907315	-0.0473704084538547	-7.80966045500243e-05	0.000926387485504253	-0.00235897391008168	-0.00183203753554023	-0.276761155673445	0.671435742580903
			6.79834988770479e-05	0.000931788901155518	0.857519218382735	0.188417648966385	0.00430534367592331	-0.00029478757061449	-0.000407113599867412	-6.12778236927624e-05
			-0.0022408357690076	-0.00179566245908303	0.0041714112959448	-0.000256141197515229	-0.881809864509232	-0.298334423091971	0.00190223347895549	-0.00198861619343608
			-0.277910675885642	0.669654703292598	-0.000424293942098877	-0.000119122494546758	0.00188845326478247	-0.00186767167515458	-0.0984302966347834	-0.127351062003179
2980000000	-0.103009171916692	-0.0171923740210631	3.04027548572346e-05	0.000999038988621908	-0.00252745815156514	-0.00165890136945359	-0.0988472661958964	0.717238759722243
			0.00014584222985666	0.000814759224729437	0.87433039201913	0.114925203414273	0.00434203672507965	-0.000641491092974206	-0.000357239242402833	8.6821402288423e-06
			-0.00244662859485171	-0.0016723359959495	0.00423319306775789	-0.000544215659708367	-0.900298266859664	-0.235639431210566	0.00145653538758112	-0.00182110911202177
			-0.101060199949023	0.716592326791275	-0.000416720197667783	-6.05502197508402e-06	0.00148862312281807	-0.00175504492912787	-0.106290009547479	-0.0954420507182738
3000000000	-0.0707174490849604	0.00960480558309862	0.000163786951642257	0.00104590321445262	-0.00269728004254852	-0.0014461796769386	0.0860136430655082	0.714622097773179
			0.000100488046563759	0.000748866477485506	0.883377330476889	0.0393172275853536	0.00434337242098283	-0.00101497459048891	-0.000338993346405051	3.97751585146717e-05
			-0.00267776428667804	-0.00145231638678049	0.00428375864222167	-0.000882951256091466	-0.914946040859254	-0.171193333543041	0.00122082234432936	-0.0016272116516836
			0.0842352152342962	0.71575949138062	-0.00036980161596512	9.42871136485813e-05	0.00117717261959086	-0.00159490516415309	-0.109134612151528	-0.077220383623005
3020000000	-0.0304299321496646	0.0321758459566595	0.000306258080710565	0.00105405389186987	-0.00285209087738378	-0.00120275682368838	0.263385905389118	0.662600797241398
			3.04669201033041e-05	0.000812585662293597	0.883560130050431	-0.036297524713023	0.00429616073015348	-0.00141635718211244	-0.000348190388844836	0.000164058048170342
			-0.00285995354092026	-0.00115249001393784	0.00428481889233021	-0.00127352048100184	-0.925389969899081	-0.104742449317735	0.000919408097550168	-0.00165478511014236
			0.263918761033928	0.66419668141746	-0.000295589385618936	0.000161249561099173	0.000927410426064589	-0.00141646450053477	-0.128990036341829	-0.0644560407652355
3040000000	0.0188239092975818	0.0460412672037909	0.000435797213217905	0.00102559320680539	-0.0029936111438451	-0.000946945517232911	0.420680595123893	0.565391639960849
			5.20095053219956e-05	0.000973787041247011	0.875425943353608	-0.109278262617651	0.00417188862224488	-0.00184058461481784	-0.000176434647239502	0.000199394725399966
			-0.00297030368017239	-0.000836316420766206	0.00420564222459913	-0.00168599823298869	-0.930755490982147	-0.0360716712375393	0.000510693621250001	-0.00117614687759813
			0.422053311729978	0.56462402241095	-0.000218562366998379	0.000188351982599685	0.000704307108774652	-0.00120738468228752	-0.141868056790717	-0.0326865388522126
3060000000	0.0741230733719661	0.0466328876205141	0.000539260297238008	0.000976383732405535	-0.00315444092702041	-0.000679177854315842	0.544785590172817	0.42840947009982
			0.000208511472847514	0.00112747349421148	0.860935477109128	-0.178038039824922	0.00393072536175947	-0.00224162101004436	-0.000142702142200946	0.00013937177360529
			-0.00304933271457091	-0.000549409908459614	0.004045728710849	-0.00207898746235754	-0.929384385768502	0.0341518867864892	0.00058544133759098	-0.000786848832108792
			0.544644902768104	0.426070158027011	-0.000158581013352174	0.000187459986365385	0.000526296368553983	-0.000903943573111606	-0.156871311040517	-0.00863796091900859
3080000000	0.13046051732969	0.0320049225305188	0.000617380328409949	0.000923111383092512	-0.00335049888329927	-0.000334734178249373	0.624706834768038	0.263601233456346
			0.000452363855913305	0.00118006221232586	0.842061992160848	-0.242490392093272	0.00360467272954071	-0.00251870069045416	-0.00015306405868465	0.000137601821494601
			-0.00315641799710819	-0.000277175654890091	0.00382771837609	-0.00242616548280246	-0.920600152574885	0.103097451661845	0.000696018354661399	-0.000587971922895127
			0.622298927109025	0.261457487046097	-0.000120606075700427	0.000176424396855899	0.000531583544835949	-0.000514693307641269	-0.179601334535597	0.0315482808008118
3100000000	0.183206147018393	0.00270152011972902	0.000677948008810075	0.000875137498611933	-0.00349510373936661	0.000132922411846308	0.654035796366646	0.0852407004963329
			0.000691362595810726	0.0011042114290828	0.819970255267037	-0.303278718395222	0.00332653180880048	-0.00266983518635341	-0.000141982352789355	0.000171134610300346
			-0.00331447964753462	4.53050216516521e-05	0.00357694882720461	-0.00272138722317139	-0.907186768644521	0.168944710044116	0.000790766865109397	-0.000445175191471595
			0.650141862398018	0.0850426754793352	-9.91472942535569e-05	0.000167597845667062	0.000757751738136926	-0.000243919789739281	-0.191680942218354	0.0960187360934013
3120000000	0.228870081394172	-0.0397773434098465	0.000728816338895452	0.000835164056655298	-0.00352087111363084	0.00065781353241268	0.630485745543211	-0.0905829859081988
			0.000846997925862845	0.000941169411541208	0.795126025354348	-0.361042792791285	0.00312767313956938	-0.00280456252030574	-9.62870513061716e-05	0.000194814250777965
			-0.00348273403982183	0.000488927922915753	0.00331099306866772	-0.0029694786680319	-0.890930946788056	0.233558486281662	0.000920458041928977	-0.000319808112948636
			0.62697263621969	-0.0882329590635011	-8.61533851274991e-05	0.000165928790363258	0.00102158755002046	-0.000188009430197212	-0.173368554082131	0.177041793487193
3140000000	0.264316570223418	-0.093844121802518	0.000775417180621707	0.000802631896326338	-0.00344610278259802	0.00118230417979749	0.557342226602267	-0.246346848417095
			0.000892230695533952	0.000769703633080491	0.767664252340836	-0.41617863400618	0.00295263014421573	-0.00296564732109929	-5.0099842213315e-05	0.000178491619383857
			-0.0035671528726054	0.00107998622041863	0.00303958659061764	-0.00317792170895735	-0.870860558984218	0.298258619992836	0.00111714161152053	-0.000277653539728897
			0.555935984171788	-0.242536671407548	-7.49612151853442e-05	0.000171676773895712	0.00120020347085531	-0.000269412956142144	-0.113751671094353	0.252839248783827
3160000000	0.28584501400884	-0.157252904107703	0.00082096249463972	0.000776132009098862	-0.00329821061411425	0.00169671881660467	0.445833778826138	-0.365883590253281
			0.000861037235776126	0.000661916527913829	0.737633921788493	-0.4688752380676	0.00276722047938765	-0.00314211059110369	-4.78072542266583e-05	0.000146924475372594
			-0.0034659644639163	0.00176618307334529	0.00276766296250544	-0.00335325722100358	-0.845847903109563	0.362852901784946	0.00128411474787279	-0.000404177015435801
			0.446616875104508	-0.362663737644413	-6.09456635152853e-05	0.000182963764418323	0.00126304959214396	-0.000407712555385616	-0.0197870048775193	0.297445706923563
3180000000	0.289431357827387	-0.225645501314605	0.000867334824054761	0.00075452927552557	-0.00308641555907836	0.00221126568317225	0.314367473246452	-0.440311367321668
			0.000826757226398874	0.000641842192864774	0.705098264400487	-0.519214996628018	0.00256233072646096	-0.00331756029247157	-7.91869640062626e-05	0.000159088560056146
			-0.00313695493690499	0.00242466061724561	0.00249791401563961	-0.00350035643758135	-0.815219480608258	0.426683213994249	0.00123790432954043	-0.000631107735525819
			0.315728964924586	-0.438622709057634	-4.09780548281551e-05	0.000197036282716182	0.00119708001819679	-0.000542412058729352	0.0861505571616301	0.294905044646443
3200000000	0.272540301373144	-0.291514660834548	0.000915969301500731	0.00073738752905902	-0.00279759025945883	0.00274287293145554	0.182173984045882	-0.472086419986302
			0.000852898323230111	0.000669339231381414	0.670152552307901	-0.567265250846143	0.00233985788697966	-0.00347969128059135	-7.42847620600813e-05	0.000229979910776104
			-0.0026475713771146	0.00292985060427955	0.00223236373343662	-0.0036227743858197	-0.778439931296796	0.488927040628806	0.000924060794178528	-0.000701552346074208
			0.182932346647876	-0.471030828167332	-1.27689760114692e-05	0.000210513518060005	0.000985930556312193	-0.000595157068829598	0.177392219640504	0.244641428228141
3220000000	0.236900290935251	-0.344725222340279	0.00096876846214747	0.000725092630415208	-0.00237710583223846	0.00329772233931063	0.0612145032331001	-0.473285064356271
			0.000941994073052766	0.000670405473756186	0.632892955758354	-0.613158883645712	0.00211184746900195	-0.00361998217249151	1.862323345173e-05	0.000289668399462309
			-0.00215092123025355	0.0032587800746082	0.00197332096559394	-0.00372347691350946	-0.734884125214574	0.548170146589394	0.000571777832113093	-0.000377860592706841
			0.0616234077130736	-0.471801554183298	2.55158832972214e-05	0.000218873781819103	0.000643936916261647	-0.000407616648883294	0.229713257832739	0.158976522532142
3240000000	0.191365056183242	-0.37526565287645	0.00102944808523258	0.000718642395204905	-0.00172986576754991	0.0037568666099912	-0.0507118865481984	-0.457689202527517
			0.0010275273314107	0.000608019223647708	0.593319174244962	-0.657176363796411	0.00191180111668303	-0.0037582852694058	0.000145947568467415	0.000245100594359342
			-0.00175491230507692	0.0035541430254651	0.00172402605022876	-0.00380600821401318	-0.68527690009593	0.600843244349713	0.000567262638796339	0.000256633203139986
			-0.0496691582888286	-0.455281074312651	7.49310277488411e-05	0.000215074441869115	0.000476410538986839	0.000288850995682059	0.225720315663428	0.0639097365003569
3260000000	0.153211202809532	-0.379514746417084	0.0011059293310314	0.000718125772325158	-0.00120371352595023	0.00394541235562819	-0.167514433134099	-0.423407179669594
			0.00104558481782415	0.000538979341595291	0.551074031142982	-0.69979708418164	0.0016650834019317	-0.00399875545045646	0.00018316437172951	0.000121775348911249
			-0.00133983923711315	0.00402112899154391	0.00148870510217927	-0.00387684928032327	-0.638174777135391	0.648157940748249	0.000998224215788639	0.00079343949594462
			-0.164229568787034	-0.421189618930249	0.000133193387896327	0.000187091740873718	0.00115193281759075	0.000799789981340095	0.16745220468133	-0.00478716529709766
3280000000	0.1421678196045	-0.369336363561583	0.00121309998110956	0.000716166795886718	-0.0005888060092726	0.00459641619458722	-0.287147802134142	-0.345914283654995
			0.00104494408816493	0.000557123310063578	0.504838428191256	-0.741415671745545	0.00124210222969416	-0.00413168178209968	0.000130595154134782	5.13463618905336e-05
			-0.000565264699942591	0.00461338183543708	0.00126932613853846	-0.00395000667238208	-0.584425195549493	0.700293305451176	0.00155440694746159	0.00110213993522042
			-0.282986591492447	-0.346477985170359	0.000185313126448698	0.000116741624408272	0.00132316543418918	0.00094602286417658	0.0774391966618704	-0.0214298686774987
3300000000	0.163600984779462	-0.372423905615312	0.00136408128125913	0.000680741296841893	0.000840069075186539	0.0049235710213683	-0.373377634284184	-0.211492603389744
			0.00115510741633718	0.000630357813806216	0.451869455919738	-0.780586839453865	0.000873534815221016	-0.00410199504631215	0.000102767166365841	4.44252274222993e-05
			0.00070590427543099	0.00487959906934829	0.00105056476275904	-0.00404811934331621	-0.521028704927651	0.743362015026325	0.00224454363471998	0.00140949483232842
			-0.370734199573526	-0.21338620965458	0.000184498935512468	-2.64415809912066e-06	0.00202625862404062	0.00175260185567489	-0.0172083498051294	0.0290977352736488
3320000000	0.197561155865739	-0.413223783547687	0.0015213560030035	0.000559790075356606	0.00226516800032344	0.00424735000912858	-0.384182046087414	-0.0476797237048099
			0.00138094506495864	0.000602473264774538	0.391733026501456	-0.811290610410655	0.000615301131098157	-0.00403853453214435	0.000109210350772129	8.66852450524195e-06
			0.00206670026672062	0.00442752394230758	0.000783263383649279	-0.00416781032289766	-0.457835960140775	0.777745721898775	0.0033801607046325	0.00152817630918825
			-0.381800482660857	-0.0501401666511872	7.6146376148459e-05	-0.00010418009219227	0.00369020930390937	0.00179002593938743	-0.0716556063939238	0.154695137462683
3340000000	0.211704862777219	-0.492340627534502	0.00159865395579649	0.000380512025838119	0.00293551106981006	0.00313949947291139	-0.313809920736067	0.0874989343904676
			0.00157063151392047	0.000415529262259515	0.332390193160443	-0.830051009786898	0.000408855958773502	-0.00402204588049845	6.8032250182287e-05	-6.47013410179804e-05
			0.00295900206900697	0.00341756075735848	0.000451914172008941	-0.00424105458783265	-0.394911264445255	0.80965523014287	0.00477578515814205	0.000917908734583282
			-0.312980618120705	0.0833613772940693	-7.33109242180975e-05	-8.62741496091513e-05	0.00502211279205978	0.000658268252877355	-0.0293087785379798	0.318103102580912
3360000000	0.185214173162199	-0.587275193259434	0.0016022011603326	0.000230612720258844	0.00308024460274467	0.00222894284416562	-0.205610281514358	0.153316606396414
			0.00162056719672234	0.000176963624145975	0.279063598251314	-0.843464952451779	0.000187681295982868	-0.00403717984331731	-4.07329362094129e-05	-9.82456394704527e-05
			0.0032278697874815	0.0023433831875881	0.000118879185551916	-0.00423764549437317	-0.328217750766343	0.839378499060868	0.00575176272490574	-0.000486953003105943
			-0.20764868318825	0.149952870835925	-0.000152601309121544	1.00030814967657e-05	0.00552523813493223	-0.00078991060554623	0.115105910241647	0.439387659499134
3380000000	0.119728749779342	-0.671510612073665	0.00158943409221426	0.000125479164346414	0.0030606149036195	0.0015575976892318	-0.109960620678894	0.15787733747845
			0.00156961837851859	2.62978396867435e-06	0.228823347733862	-0.856254270152514	-5.80406840173429e-05	-0.00404599550401782	-0.000156279626142883	-5.14382006603656e-05
			0.0031076105723565	0.00153546175898966	-0.000181422250838564	-0.00419089604093642	-0.256663052038708	0.864286985749168	0.00592526806338367	-0.00216045949922307
			-0.112634556838789	0.156972456958292	-0.000163765882023293	0.000103439971620389	0.00551253732233517	-0.00209398063181281	0.303709087451799	0.469738899060488
3400000000	0.0303347117186391	-0.730660216392457	0.00158364820973029	4.40938119918665e-05	0.00298649026249226	0.000997046257591972	-0.0466481470164575	0.132401086232234
			0.00150575947941226	-8.52406394970036e-05	0.178849262989052	-0.868452575364879	-0.000313841099413476	-0.00402902749549519	-0.000225949184169084	4.93820211513587e-05
			0.00287877990403961	0.0010253164262723	-0.000452652475007655	-0.00412589498891673	-0.181007456433953	0.882199106128879	0.00544297124864158	-0.00360919099204894
			-0.0482012166730307	0.132771536048369	-0.00014411495454155	0.000170899224990781	0.0052516773810982	-0.00324965682784086	0.477775744516457	0.418547477122887
3420000000	-0.0680835059328244	-0.763130354606312	0.00158665816270601	-2.86783256898389e-05	0.00279822026719717	0.000486115333742547	-0.0117955263707457	0.100262750939037
			0.00147928850044564	-0.000124470819984888	0.128179733034974	-0.879183778123927	-0.000556257615912419	-0.00398423642981334	-0.0002397149574969	0.000162496424871362
			0.00268542564008121	0.000706482840288887	-0.0007029624044243	-0.00405109430327533	-0.103198378585808	0.891130529859842	0.00461792525583532	-0.00465792921408361
			-0.0123982904207	0.100556528351985	-0.000115834436221802	0.000215427774399088	0.00476109391939851	-0.00438279471621673	0.611271110127723	0.317786814248851
3440000000	-0.166374155112296	-0.773209134908876	0.00159570703471446	-9.99378571722355e-05	0.00243833066056804	0.000184331441596606	0.00444868185394928	0.0717792971362502
			0.00149649459004217	-0.000156918605766568	0.0766378357118051	-0.887880162829493	-0.000768500670803553	-0.00394437038947303	-0.000211099309734979	0.000261111737965099
			0.00255753315904213	0.000476508974563601	-0.000936596536064516	-0.00396899555252893	-0.0278197996768359	0.891206825115827	0.00368337590411141	-0.00533280036677778
			0.00405867118896605	0.0716537795778966	-8.95872353543143e-05	0.000243683242138335	0.00380311250592723	-0.0053835163156282	0.701544244198939	0.194244368292809
3460000000	-0.260295261356626	-0.76594723498752	0.00160829356278462	-0.000172863515209602	0.0022336060376494	0.000201342331565844	0.0100875494863233	0.049677922330235
			0.00154329541098161	-0.000207462312960159	0.0241958239498976	-0.894303284994232	-0.00100201513521534	-0.00393554958999067	-0.000158443446908178	0.000334068036765864
			0.00247831627075606	0.000276130287329622	-0.0011544872383726	-0.00388150250771188	0.0443310525802485	0.888616585233848	0.00276409877876181	-0.00571963215482752
			0.00949081456189937	0.0493810843313913	-7.1977087763382e-05	0.000261800430946331	0.00261364063783405	-0.00574157942821642	0.754684987838514	0.0642046283998763
3480000000	-0.348329179136904	-0.745301425694343	0.00162294216985962	-0.000249289366558543	0.00229606025029729	0.000162672055270477	0.0101824755280753	0.0336670696368818
			0.00160221009177068	-0.000285538128104611	-0.0293300345392625	-0.898407074982658	-0.00127867077389568	-0.00389820756773637	-9.85452568889162e-05	0.00037919713853771
			0.00242330458607685	8.00492105877674e-05	-0.00135545273362896	-0.00379263104330592	0.119207360429336	0.882921210593044	0.00191478863797343	-0.00590135965596428
			0.00935311491131396	0.0335186795092447	-6.95280599476556e-05	0.00027700561276034	0.00177358424471249	-0.00572558712296165	0.778197968449535	-0.0637175336094749
3500000000	-0.43013621415066	-0.713947281311898	0.00163901743731852	-0.000331449968891191	0.00238687719028705	-2.54512227528371e-05	0.00762975425722923	0.0226172480162976
			0.00165885561639047	-0.0003915347342971	-0.0845893549560193	-0.900110106193999	-0.00155808223405254	-0.00381478729885795	-4.83358518425349e-05	0.000398690925953216
			0.00237350823343589	-0.000118679214664009	-0.00153801793562439	-0.00371209422030828	0.196012360696402	0.869760964748709	0.0011547787826693	-0.00594285682669586
			0.00675449309887129	0.0227864973023826	-9.00972940084216e-05	0.000302869142960512	0.001151408242803	-0.00572153503438594	0.778663553562472	-0.1855099649553
3540000000	-0.5752316398799	-0.625211202459766	0.00166219733683859	-0.000535575751372457	0.00240011665227436	-0.000563406663888837	0.000122889857385816	0.0112121393170989
			0.00172784655881067	-0.00067042783872336	-0.206296916018851	-0.888993959599003	-0.00207129299496103	-0.00355604745198045	-0.000150748074605283	0.000467637664291412
			0.0022480477111934	-0.000517182906493128	-0.00191541134372	-0.00367016354497881	0.346051213403658	0.819456333445738	-7.32543370499539e-05	-0.00582653950646153
			-0.00014198167938855	0.0116265868332151	-0.000160117386123411	0.000543696903631032	-6.40828221416942e-06	-0.00574691422545737	0.726548017860428	-0.412978509189248
3580000000	-0.695280685267007	-0.506660061574634	0.00158382993865656	-0.000744445810497404	0.0021776536309814	-0.0011277480828103	-0.00564939267668116	0.00745963657492207
			0.00170334480233345	-0.00100122438883435	-0.310517735309232	-0.835891222296331	-0.0024872726615906	-0.00320753564686105	0.000466794953944472	0.000630745381869836
			0.00206449852839295	-0.000891428310634301	-0.00264054437206378	-0.00348377272431284	0.482428451240133	0.740087719787156	-0.00128137042212927	-0.00544714286690641
			-0.00600375556781195	0.00836481398682922	0.000300860234449097	0.000808275537588006	-0.00121902600956699	-0.0055709942593388	0.612532835193652	-0.560415429494678
3620000000	-0.787191595726787	-0.360568389656272	0.00151919989667257	-0.000883285432194549	0.00162562112284027	-0.00137198901933392	-0.0105100313300397	0.00860365748380099
			0.00156484285926398	-0.00133840600064589	-0.390774414211097	-0.795998096345995	-0.00272174187584133	-0.00301620859974158	0.000506001996103703	0.000418997589794147
			0.00182667396807591	-0.00121765689648662	-0.00309682371617457	-0.00296775252054488	0.593299981061375	0.645935792129082	-0.00206664322646207	-0.00497332370035517
			-0.0100469213084653	0.00916871948718164	0.000590742567578363	0.000567770057989858	-0.00211030187037372	-0.00479112561144919	0.496635809195818	-0.694436504256483
3660000000	-0.84363142347929	-0.187762108822819	0.00146149944754075	-0.00103627863357136	0.00155482497564279	-0.00157593672742829	-0.0129950088507946	0.0125883313125723
			0.00130264172660436	-0.00163297238516671	-0.476871210934908	-0.75241956567907	-0.00332033541996308	-0.00266151855108486	0.000535622567709445	0.00032669283082477
			0.00155337766659879	-0.00148760539245139	-0.00340808951268461	-0.00251760439965997	0.703625820698949	0.531497046374511	-0.00274626503997471	-0.00449793948498367
			-0.0123900634568955	0.0124482554227391	0.000682675206129425	0.000389144847576977	-0.00277293466745691	-0.00464930336742191	0.357393501402681	-0.791576115662221
3700000000	-0.850549185051209	0.00993234116843428	0.00138599276277306	-0.00119282369931265	0.00120313698138075	-0.00183116603094607	-0.0130710266817276	0.0185293102900868
			0.000915817721396968	-0.00181905322184181	-0.561276414030479	-0.697313465408628	-0.00364442930157322	-0.00218704023472177	0.000560469871679469	0.000281600027302893
			0.0012664642518421	-0.00171237357965785	-0.00368175355689454	-0.0020807725534928	0.779518534064853	0.397373007208491	-0.00335742227833888	-0.00400262542097965
			-0.0129455346860702	0.0178477576287484	0.000741817994360461	0.000255848060937643	-0.0036264747993517	-0.00400398330226231	0.207995020822668	-0.853088949942566
3740000000	-0.781180019975087	0.223557251576973	0.00129325424482012	-0.0013421423320955	0.000930174943363087	-0.00190373704500359	-0.00997620548907645	0.0262390103648857
			0.000431905749393989	-0.00178807993665897	-0.640391468682009	-0.630915201079602	-0.00395372412750707	-0.00178052027462824	0.000613498426070815	0.00029206118466383
			0.000976734773746747	-0.00193309076609974	-0.00392406961063905	-0.0016306279814058	0.827808751846535	0.263872276832435	-0.00394526896438646	-0.0034527361220229
			-0.0106804232817763	0.0257000193622408	0.000791430444509617	0.000136275452872423	-0.00406037748789728	-0.00311664922214485	0.0563277490799616	-0.879251103593567
3780000000	-0.587149683010221	0.411410770118038	0.00119125067016073	-0.00147733063858833	0.000622570392360449	-0.00239820794130926	-0.00123360191948335	0.0353713095931846
			1.63222322142973e-06	-0.00135790364737784	-0.712342181702995	-0.553848211732076	-0.00422590003399079	-0.00112340849961692	0.000790238857108543	0.000330832592922698
			0.000633090750918245	-0.00223793926991909	-0.00413296938865216	-0.00115940466378704	0.870683974187131	0.118964793406022	-0.00449774236909489	-0.00272342740683256
			-0.00211155656248683	0.0359474461493438	0.000835460248322713	1.8707457625312e-05	-0.00442460622278242	-0.00272079341698159	-0.084283667538728	-0.869433279608955
3820000000	-0.245455545745942	0.410187076052832	0.00109640349989658	-0.00159511751727545	-5.74883297301556e-05	-0.00262137964612778	0.0196299120537278	0.0414581656146754
			0.000206027111896405	-0.000459595404526514	-0.775649890577145	-0.466581238335052	-0.00433347096479199	-0.000686907661997346	0.00107604791420258	0.000121530372213088
			-4.97884428750048e-05	-0.00267024755675766	-0.00430737928046574	-0.000664636471063272	0.869524247830017	-0.0255447028039974	-0.00454574096478854	-0.0018395616499918
			0.0201458022861891	0.0418649495988049	0.000876870747058579	-0.000102165667192938	-0.00468269328293735	-0.0018590328816722	-0.192823497535135	-0.853798221460925
3860000000	-0.112320080002172	0.0300143621069489	0.00104062704516337	-0.00170186197051337	-0.00125572372162385	-0.00271972638752816	0.0465339534581726	0.0193088982270617
			0.00161557159197417	-0.000318271043174753	-0.828763840462722	-0.369373151620714	-0.00461613073375576	-0.000161050995823581	0.00123657272719806	3.53294103340383e-05
			-0.00140477088296495	-0.00255474381944239	-0.0044491533788833	-0.000144177423060813	0.857865200351976	-0.15736097734313	-0.00499539125069389	-0.00164567696747381
			0.0464957335542187	0.0196487919337929	0.000921804181892374	-0.00023188225132243	-0.00469114952118697	-0.0014883052718967	-0.336037658648518	-0.818299388585817
3900000000	-0.4503108239918	-0.120669609848436	0.00108517110748048	-0.00183763347716627	-0.0023631939730673	-0.00138934608709748	0.037229316073832	-0.011450621621548
			0.00252619439722879	-0.00153522638598375	-0.869553056559778	-0.262170456730831	-0.00467714344152916	0.000639758366618479	0.00144010373340495	-0.00059812383644262
			-0.00230901986552324	-0.00138191760432676	-0.00456573265389466	0.000409662952934579	0.828696473281944	-0.297414627293043	-0.00515836781121337	-0.000659493727882642
			0.0371999649995382	-0.0113061612046165	0.000982655736555695	-0.000384821816963592	-0.0053919953566531	-0.00100856593188654	-0.421927406812399	-0.773751664390493
3940000000	-0.672820684876217	0.0741467468891827	0.00132452516057487	-0.00217191125798628	-0.00214765594423032	-0.000197901291018859	0.0198047262248078	-0.0188857456550344
			0.0022310177883327	-0.00352026579689518	-0.893804023555574	-0.144751678564422	-0.00453775874552529	0.00121640453691293	0.00123941280981192	-0.000937349638141339
			-0.00230345838835414	-0.000121510168248398	-0.00467115032267673	0.0010296726888863	0.767604889965284	-0.422037761578577	-0.00569282379203432	2.71333796706642e-05
			0.0203275670528236	-0.0183632967442113	0.0010751933938538	-0.000610497316843654	-0.00563549239248829	0.000132332903852044	-0.545509319634638	-0.701259013844519
3980000000	-0.698125427472109	0.332600076381825	0.00159797372986217	-0.00329184255146077	-0.00184890533115294	0.000508285002836702	0.00830997539306173	-0.0167239124047951
			0.000735840599987992	-0.00442410268410205	-0.891223825329555	-0.0215519878929359	-0.00452995212401026	0.00177707395179324	0.000895014912880057	-0.00133749127712165
			-0.00190611109109565	0.000702658198491872	-0.00472880599533654	0.00183333357952744	0.697511344561148	-0.525747882932184	-0.00529379267339714	0.00111849573675926
			0.00933015391630572	-0.0175478676692737	0.00112963817089729	-0.00105886309605171	-0.0054432991202483	0.001022415162795	-0.615664443401352	-0.640167315937089
4020000000	-0.60369897042807	0.544928771663295	0.000112774758276153	-0.00514234019304998	-0.00150350722597204	0.0012080548850897	0.00310379810605483	-0.0128273557257751
			-0.000621549732643227	-0.00454712213137894	-0.863277052527147	0.0787885756167615	-0.00445834563092422	0.00258734185807056	0.000514738269760428	-0.00143793248907362
			-0.00145128199923802	0.00129821506479628	-0.00436742310152035	0.00281416447001131	0.623455724017483	-0.621527758187593	-0.00510832943380673	0.00172421688678378
			0.00294741730471609	-0.0141901195762239	0.000666489832770087	-0.00164065788385947	-0.0052840970226707	0.00169679775007633	-0.70657401930927	-0.561715481570454
4060000000	-0.449254667300805	0.696695368157575	-0.00233680106744966	-0.00465745818599332	-0.00086123722438395	0.00179441522809124	0.000820828233147049	-0.00999472359558327
			-0.00178806894027066	-0.00430904902868165	-0.853598886465386	0.170188863269778	-0.00394101564953128	0.00339357306456335	0.00026157444583365	-0.00134560794755749
			-0.000933695982135419	0.00177217958352183	-0.00372497600670333	0.0033412036052206	0.531746579066964	-0.71264940916696	-0.00509868812172199	0.00260143820100341
			-0.000350270807160942	-0.0104935417095908	2.06845121379182e-05	-0.0015680772648229	-0.00512885034760166	0.00249152028917056	-0.775426555996598	-0.449182532789921
4100000000	-0.26376111885897	0.790394841891577	-0.00337038354477909	-0.00342372757145825	-0.000158391602881908	0.00205796789545679	-0.000362353242920201	-0.00694436152873276
			-0.00279740655606609	-0.00382998985580419	-0.833521178096144	0.283939169589298	-0.0033505127377661	0.00378080418588794	-0.000104506859711678	-0.00153064658182662
			-0.000337809273784302	0.00213605194567282	-0.00328256561113256	0.00371610307578634	0.423935148302558	-0.77958575572944	-0.00470233761820945	0.00295748824373598
			-0.0016604379243619	-0.00714804158014994	-0.000240529021844977	-0.00136014801260521	-0.0047029516978756	0.0032229355886034	-0.842690486996686	-0.358917441153252
4140000000	-0.0645702813658041	0.829179654256216	-0.00386652806504035	-0.00245583755234314	0.000470821924862718	0.00220209293936433	-0.000699279306994875	-0.00514002380842469
			-0.00365482442371126	-0.00315450932899334	-0.78754881040611	0.402114062857087	-0.00301393241473047	0.00409820480564787	-0.000349134116297552	-0.00144158181264032
			0.000334691501009097	0.00237410298976801	-0.00285855470858833	0.0041367671544873	0.318867330861269	-0.82401824863583	-0.00445658673728378	0.00380490243351654
			-0.00162291052715722	-0.00440355655576171	-0.000396672304457389	-0.00124817236723479	-0.00430757625585039	0.00368052810845165	-0.873271788616106	-0.236278721320526
4180000000	0.135058104006199	0.816042835709325	-0.00422397797919703	-0.0016229830773146	0.00115010125480196	0.00228312997495056	-0.00064169170423304	-0.00346950549917087
			-0.00434554362792346	-0.0023098863128334	-0.717446913648408	0.514817238949733	-0.00270461213672574	0.00468504861993845	-0.000577900079100976	-0.00134850556880004
			0.00106682553258694	0.00246419819182447	-0.00236461128736574	0.00456292406730532	0.219412629996985	-0.860553961246577	-0.00399383551196845	0.00463593534147505
			-0.000652786822083515	-0.00239397661003956	-0.000551617899151784	-0.00117600520900015	-0.00423378742298619	0.00423645650579761	-0.88176029335323	-0.119906529495609
4220000000	0.323456341698179	0.754691044054352	-0.00450814681207232	-0.000806375947680627	0.00186357643262172	0.00215880545669907	5.03744836420992e-05	-0.00180103100815292
			-0.00484432044546485	-0.00132424078473907	-0.625252438690759	0.616524132633675	-0.00192143784287836	0.00533381521546776	-0.00079097455279853	-0.00123386375897786
			0.00182909267458411	0.00238637252826898	-0.00178301399049385	0.00495127802249461	0.109421127260721	-0.892905944653932	-0.00330952356395522	0.00538528761072543
			0.000925899436579928	-0.00121075420635708	-0.000719814684412382	-0.00110311908814038	-0.00387524841034191	0.00541102312839798	-0.875384841138383	-0.0149775201669127
4260000000	0.489902941701833	0.650358769486696	-0.00470789000065304	4.57362623694632e-05	0.00242730708123349	0.00193374039281122	0.00178149691906198	-0.000483318214317336
			-0.00512269493377603	-0.000233866266447557	-0.513131349381893	0.702335461193998	-0.00101958740486485	0.00545711504287497	-0.000991160188982761	-0.00109271769322213
			0.00258196845227851	0.00212807941775224	-0.0011166805380073	0.00526838326513603	-0.0086777852521584	-0.898818258066064	-0.00245850546860548	0.00594161195042505
			0.00281802560637476	-0.000907819536557684	-0.000896557748685575	-0.00100887503692094	-0.00266028497164156	0.0062359462155652	-0.866700344122689	0.0814108757203327
4300000000	0.624818094909325	0.510370602770029	-0.00479526984039964	0.000946599311737244	0.00299969392273337	0.00176856870953159	0.00439701167559425	-0.000388199599843808
			-0.00515568899237762	0.000913686719989197	-0.384201430295801	0.767506452269483	-0.00042893339084252	0.0054658178055349	-0.0011757734471557	-0.000915925304944741
			0.00327898272194058	0.00168840806127194	-0.000378747004628131	0.00548652384634612	-0.113545421289533	-0.884701574603099	-0.00157917571319749	0.00627289591504485
			0.0047352393620479	-0.00148757831076646	-0.00107218421002105	-0.00088284431548821	-0.0015312043325001	0.00633602800563379	-0.858352028360862	0.184718916742959
4340000000	0.72045126168006	0.344359356628251	-0.00474163562342832	0.00188564619444969	0.00377615393784763	0.00152880702323932	0.0068932535151553	-0.00195488047616702
			-0.00492870257482496	0.0020597067516202	-0.242940481546471	0.807807210171637	0.000126013938762286	0.00566868413610032	-0.00133032098975691	-0.000697961448974393
			0.00387118643117332	0.00108143003515986	0.000409376038644879	0.00558318026156728	-0.206882691508724	-0.866035305859976	-0.000758480032770553	0.00647105076156606
			0.00639884376746574	-0.00288462204668723	-0.00123528738181532	-0.00072093656769306	-0.000831238865759148	0.00625451856910887	-0.834100071958353	0.303901017354604
4380000000	0.7718302043577	0.163994056070486	-0.00452483141024439	0.00283589938460323	0.00471556175135881	0.000821974693441648	0.00835941631653892	-0.00468343501412359
			-0.0044440407892929	0.00313790880018049	-0.0952072362684676	0.820129527177584	0.00103983159344497	0.00590524037494683	-0.00143731005061717	-0.000446500626118195
			0.00431326920293487	0.000337829221696287	0.00121914099488344	0.0055427599550833	-0.302310363556018	-0.846719535118163	3.78324856404296e-05	0.00661820238631314
			0.00755974941791729	-0.00495645688072894	-0.00137416345919455	-0.000524118141463024	-0.00034684224359845	0.00647413207075161	-0.777654577515931	0.427859689512526
4420000000	0.777663868570213	-0.0178954617533354	-0.0041340265557885	0.00375966230307061	0.00512599921154431	-0.000426907189041956	0.00856387820321694	-0.00779909448911037
			-0.00372541884796527	0.00408155435715827	0.0521113127530709	0.803104330900349	0.00215811026357703	0.00557039549091055	-0.00148685278273377	-0.000177863584865647
			0.0045706585643662	-0.000496373461076431	0.00201704396672066	0.00535894627439716	-0.405794884458753	-0.807822789576153	0.000867204947038996	0.00670889737026705
			0.00802765759335661	-0.00748844622786957	-0.00147816526709786	-0.000297803899041564	0.000580420769648949	0.00689102536887056	-0.687548546832597	0.538437215251062
4460000000	0.740812293110641	-0.188736219791641	-0.00357271131019218	0.00461458411373656	0.00491494604622474	-0.00140917600966832	0.00768050755432408	-0.0107586836885273
			-0.00281844548380111	0.00483290962328001	0.191778943059184	0.757529274939798	0.00280181414980052	0.00487515908945603	-0.00147740239162167	9.04903741953648e-05
			0.00462591155237311	-0.00136470403762332	0.00276811961526563	0.00503637688290738	-0.493410022968016	-0.744522938646039	0.00174110899341415	0.00669801960096388
			0.00769899482899145	-0.0102165607023771	-0.0015390872001993	-5.10760171935717e-05	0.00178970230405488	0.00680922595517471	-0.572519169383827	0.622897626014305
4500000000	0.668003666034612	-0.337855535657793	-0.00285924072879066	0.00536017245328586	0.00464690411610903	-0.00203389798268623	0.00598250113275812	-0.0132664974578113
			-0.00178595354972516	0.00535244922721221	0.317076086965804	0.686441923768168	0.00311362745454362	0.00431015520288888	-0.00141328728756918	0.000343052922042625
			0.00448224341576145	-0.00220815187770158	0.00344021045989478	0.00459071827947481	-0.560182274963872	-0.675089637968054	0.0026315596068541	0.00654986731853998
			0.0065720941399296	-0.0128649643395011	-0.00155230300221014	0.000204558423302448	0.00277626539764242	0.0063542139486859	-0.444167323041623	0.675626391222507
